
     Program PWSCF v.7.5 starts on  1Jul2026 at 15:33:39 

     This program is part of the open-source Quantum ESPRESSO suite
     for quantum simulation of materials; please cite
         "P. Giannozzi et al., J. Phys.:Condens. Matter 21 395502 (2009);
         "P. Giannozzi et al., J. Phys.:Condens. Matter 29 465901 (2017);
         "P. Giannozzi et al., J. Chem. Phys. 152 154105 (2020);
          URL http://www.quantum-espresso.org", 
     in publications or presentations arising from this work. More details at
     http://www.quantum-espresso.org/quote

     Parallel version (MPI & OpenMP), running on       4 processor cores
     Number of MPI processes:                 4
     Threads/MPI process:                     1

     MPI processes distributed on     1 nodes
     12330 MiB available memory on the printing compute node when the environment starts

     Reading input from fe15_vacancy.relax.in

     Current dimensions of program PWSCF are:
     Max number of different atomic species (ntypx) = 10
     Max number of k-points (npk) =  40000
     Max angular momentum in pseudopotentials (lmaxx) =  4
     file Fe.pbe-spn-rrkjus_psl.1.0.0.UPF: wavefunction(s)  3P 3D renormalized

     R & G space division:  proc/nbgrp/npool/nimage =       4
     Subspace diagonalization in iterative solution of the eigenvalue problem:
     a serial algorithm will be used


     Parallelization info
     --------------------
     sticks:   dense  smooth     PW     G-vecs:    dense   smooth      PW
     Min         841     421    122                36633    12965    2030
     Max         842     422    123                36634    12968    2031
     Sum        3365    1685    489               146533    51867    8121

     Using Slab Decomposition



     bravais-lattice index     =            1
     lattice parameter (alat)  =      10.8320  a.u.
     unit-cell volume          =    1270.9427 (a.u.)^3
     number of atoms/cell      =           15
     number of atomic types    =            1
     number of electrons       =       240.00
     number of Kohn-Sham states=          144
     kinetic-energy cutoff     =      45.0000  Ry
     charge density cutoff     =     360.0000  Ry
     scf convergence threshold =      1.0E-06
     mixing beta               =       0.1000
     number of iterations used =            8  local-TF  mixing
     energy convergence thresh.=      1.0E-04
     force convergence thresh. =      1.0E-03
     Exchange-correlation= PBE
                           (   1   4   3   4   0   0   0)
     nstep                     =           50


     celldm(1)=  10.832000  celldm(2)=   0.000000  celldm(3)=   0.000000
     celldm(4)=   0.000000  celldm(5)=   0.000000  celldm(6)=   0.000000

     crystal axes: (cart. coord. in units of alat)
               a(1) = (   1.000000   0.000000   0.000000 )  
               a(2) = (   0.000000   1.000000   0.000000 )  
               a(3) = (   0.000000   0.000000   1.000000 )  

     reciprocal axes: (cart. coord. in units 2 pi/alat)
               b(1) = (  1.000000  0.000000  0.000000 )  
               b(2) = (  0.000000  1.000000  0.000000 )  
               b(3) = (  0.000000  0.000000  1.000000 )  


     PseudoPot. # 1 for Fe read from file:
     ../../pseudo/Fe.pbe-spn-rrkjus_psl.1.0.0.UPF
     MD5 check sum: 72ea77fed8e64ab3a2ccf2804dfc1862
     Pseudo is Ultrasoft + core correction, Zval = 16.0
     Generated using &quot;atomic&quot; code by A. Dal Corso  v.6.3
     Using radial grid of 1191 points,  6 beta functions with: 
                l(1) =   0
                l(2) =   0
                l(3) =   1
                l(4) =   1
                l(5) =   2
                l(6) =   2
     Q(r) pseudized with 0 coefficients 


     atomic species   valence    mass     pseudopotential
     Fe               16.00    55.84500     Fe( 1.00)

     Starting magnetic structure 
     atomic species   magnetization
     Fe              0.500

     48 Sym. Ops., with inversion, found



   Cartesian axes

     site n.     atom                  positions (alat units)
         1        Fe     tau(   1) = (   0.5000000   0.0000000   0.0000000  )
         2        Fe     tau(   2) = (   0.0000000   0.5000000   0.0000000  )
         3        Fe     tau(   3) = (   0.5000000   0.5000000   0.0000000  )
         4        Fe     tau(   4) = (   0.0000000   0.0000000   0.5000000  )
         5        Fe     tau(   5) = (   0.5000000   0.0000000   0.5000000  )
         6        Fe     tau(   6) = (   0.0000000   0.5000000   0.5000000  )
         7        Fe     tau(   7) = (   0.5000000   0.5000000   0.5000000  )
         8        Fe     tau(   8) = (   0.2500000   0.2500000   0.2500000  )
         9        Fe     tau(   9) = (   0.7500000   0.2500000   0.2500000  )
        10        Fe     tau(  10) = (   0.2500000   0.7500000   0.2500000  )
        11        Fe     tau(  11) = (   0.7500000   0.7500000   0.2500000  )
        12        Fe     tau(  12) = (   0.2500000   0.2500000   0.7500000  )
        13        Fe     tau(  13) = (   0.7500000   0.2500000   0.7500000  )
        14        Fe     tau(  14) = (   0.2500000   0.7500000   0.7500000  )
        15        Fe     tau(  15) = (   0.7500000   0.7500000   0.7500000  )

     number of k points=    10  Marzari-Vanderbilt smearing, width (Ry)=  0.0200
                       cart. coord. in units 2pi/alat
        k(    1) = (   0.0000000   0.0000000   0.0000000), wk =   0.0156250
        k(    2) = (   0.0000000   0.0000000   0.2500000), wk =   0.0937500
        k(    3) = (   0.0000000   0.0000000  -0.5000000), wk =   0.0468750
        k(    4) = (   0.0000000   0.2500000   0.2500000), wk =   0.1875000
        k(    5) = (   0.0000000   0.2500000  -0.5000000), wk =   0.1875000
        k(    6) = (   0.0000000  -0.5000000  -0.5000000), wk =   0.0468750
        k(    7) = (   0.2500000   0.2500000   0.2500000), wk =   0.1250000
        k(    8) = (   0.2500000   0.2500000  -0.5000000), wk =   0.1875000
        k(    9) = (   0.2500000  -0.5000000  -0.5000000), wk =   0.0937500
        k(   10) = (  -0.5000000  -0.5000000  -0.5000000), wk =   0.0156250

     Dense  grid:   146533 G-vectors     FFT dimensions: (  72,  72,  72)

     Smooth grid:    51867 G-vectors     FFT dimensions: (  48,  48,  48)

     Estimated max dynamical RAM per process >     247.78 MB

     Estimated total dynamical RAM >     991.13 MB

     Check: negative core charge=   -0.000004
     Generating pointlists ...
     new r_m :   0.1786 (alat units)  1.9348 (a.u.) for type    1

     Initial potential from superposition of free atoms

     starting charge     239.9934, renormalised to     240.0000
     Starting wfcs are  150 randomized atomic wfcs

     total cpu time spent up to now is        7.1 secs

     per-process dynamical memory:   118.7 Mb

     Self-consistent Calculation

     iteration #  1     ecut=    45.00 Ry     beta= 0.10
     Davidson diagonalization with overlap
     ethr =  1.00E-02,  avg # of iterations =  3.4

     total cpu time spent up to now is       27.1 secs

     total energy              =   -3710.71344973 Ry
     estimated scf accuracy    <       8.95941139 Ry

     total magnetization       =    47.73 Bohr mag/cell
     absolute magnetization    =    49.91 Bohr mag/cell

     iteration #  2     ecut=    45.00 Ry     beta= 0.10
     Davidson diagonalization with overlap
     ethr =  3.73E-03,  avg # of iterations =  1.2

     negative rho (up, down):  0.000E+00 7.364E-03

     total cpu time spent up to now is       42.3 secs

     total energy              =   -3715.54712690 Ry
     estimated scf accuracy    <       7.38574156 Ry

     total magnetization       =    47.74 Bohr mag/cell
     absolute magnetization    =    49.88 Bohr mag/cell

     iteration #  3     ecut=    45.00 Ry     beta= 0.10
     Davidson diagonalization with overlap
     ethr =  3.08E-03,  avg # of iterations =  1.3

     negative rho (up, down):  0.000E+00 9.922E-03

     total cpu time spent up to now is       57.2 secs

     total energy              =   -3716.13731073 Ry
     estimated scf accuracy    <       0.61841727 Ry

     total magnetization       =    42.61 Bohr mag/cell
     absolute magnetization    =    45.68 Bohr mag/cell

     iteration #  4     ecut=    45.00 Ry     beta= 0.10
     Davidson diagonalization with overlap
     ethr =  2.58E-04,  avg # of iterations =  4.0

     negative rho (up, down):  0.000E+00 1.003E-02

     total cpu time spent up to now is       75.8 secs

     total energy              =   -3716.19766498 Ry
     estimated scf accuracy    <       0.30886697 Ry

     total magnetization       =    39.42 Bohr mag/cell
     absolute magnetization    =    42.68 Bohr mag/cell

     iteration #  5     ecut=    45.00 Ry     beta= 0.10
     Davidson diagonalization with overlap
     ethr =  1.29E-04,  avg # of iterations =  2.4

     negative rho (up, down):  0.000E+00 9.670E-03

     total cpu time spent up to now is       92.9 secs

     total energy              =   -3716.24235785 Ry
     estimated scf accuracy    <       0.05661859 Ry

     total magnetization       =    37.86 Bohr mag/cell
     absolute magnetization    =    40.97 Bohr mag/cell

     iteration #  6     ecut=    45.00 Ry     beta= 0.10
     Davidson diagonalization with overlap
     ethr =  2.36E-05,  avg # of iterations =  4.3

     negative rho (up, down):  0.000E+00 8.312E-03

     total cpu time spent up to now is      111.6 secs

     total energy              =   -3716.25601578 Ry
     estimated scf accuracy    <       0.03544742 Ry

     total magnetization       =    38.48 Bohr mag/cell
     absolute magnetization    =    41.42 Bohr mag/cell

     iteration #  7     ecut=    45.00 Ry     beta= 0.10
     Davidson diagonalization with overlap
     ethr =  1.48E-05,  avg # of iterations =  1.8

     negative rho (up, down):  0.000E+00 5.630E-03

     total cpu time spent up to now is      128.1 secs

     total energy              =   -3716.26545426 Ry
     estimated scf accuracy    <       0.01218158 Ry

     total magnetization       =    38.08 Bohr mag/cell
     absolute magnetization    =    40.88 Bohr mag/cell

     iteration #  8     ecut=    45.00 Ry     beta= 0.10
     Davidson diagonalization with overlap
     ethr =  5.08E-06,  avg # of iterations =  4.6

     negative rho (up, down):  0.000E+00 5.560E-03

     total cpu time spent up to now is      150.2 secs

     total energy              =   -3716.27275440 Ry
     estimated scf accuracy    <       0.01196349 Ry

     total magnetization       =    37.27 Bohr mag/cell
     absolute magnetization    =    39.74 Bohr mag/cell

     iteration #  9     ecut=    45.00 Ry     beta= 0.10
     Davidson diagonalization with overlap
     ethr =  4.98E-06,  avg # of iterations =  2.1

     negative rho (up, down):  0.000E+00 5.240E-03

     total cpu time spent up to now is      166.5 secs

     total energy              =   -3716.27394379 Ry
     estimated scf accuracy    <       0.00740623 Ry

     total magnetization       =    37.30 Bohr mag/cell
     absolute magnetization    =    39.70 Bohr mag/cell

     iteration # 10     ecut=    45.00 Ry     beta= 0.10
     Davidson diagonalization with overlap
     ethr =  3.09E-06,  avg # of iterations =  3.8

     negative rho (up, down):  0.000E+00 5.227E-03

     total cpu time spent up to now is      185.4 secs

     total energy              =   -3716.27618612 Ry
     estimated scf accuracy    <       0.00062818 Ry

     total magnetization       =    37.46 Bohr mag/cell
     absolute magnetization    =    39.75 Bohr mag/cell

     iteration # 11     ecut=    45.00 Ry     beta= 0.10
     Davidson diagonalization with overlap
     ethr =  2.62E-07,  avg # of iterations =  4.1

     negative rho (up, down):  0.000E+00 5.042E-03

     total cpu time spent up to now is      204.7 secs

     total energy              =   -3716.27715385 Ry
     estimated scf accuracy    <       0.00031162 Ry

     total magnetization       =    37.34 Bohr mag/cell
     absolute magnetization    =    39.63 Bohr mag/cell

     iteration # 12     ecut=    45.00 Ry     beta= 0.10
     Davidson diagonalization with overlap
     ethr =  1.30E-07,  avg # of iterations =  3.1

     negative rho (up, down):  0.000E+00 5.159E-03

     total cpu time spent up to now is      225.7 secs

     total energy              =   -3716.27807774 Ry
     estimated scf accuracy    <       0.00035866 Ry

     total magnetization       =    37.19 Bohr mag/cell
     absolute magnetization    =    39.46 Bohr mag/cell

     iteration # 13     ecut=    45.00 Ry     beta= 0.10
     Davidson diagonalization with overlap
     ethr =  1.30E-07,  avg # of iterations =  2.8

     negative rho (up, down):  0.000E+00 5.112E-03

     total cpu time spent up to now is      244.5 secs

     total energy              =   -3716.27873444 Ry
     estimated scf accuracy    <       0.00003080 Ry

     total magnetization       =    37.26 Bohr mag/cell
     absolute magnetization    =    39.49 Bohr mag/cell

     iteration # 14     ecut=    45.00 Ry     beta= 0.10
     Davidson diagonalization with overlap
     ethr =  1.28E-08,  avg # of iterations =  5.3

     negative rho (up, down):  0.000E+00 5.083E-03

     total cpu time spent up to now is      269.2 secs

     total energy              =   -3716.27931199 Ry
     estimated scf accuracy    <       0.00005531 Ry

     total magnetization       =    37.19 Bohr mag/cell
     absolute magnetization    =    39.40 Bohr mag/cell

     iteration # 15     ecut=    45.00 Ry     beta= 0.10
     Davidson diagonalization with overlap
     ethr =  1.28E-08,  avg # of iterations =  2.8

     negative rho (up, down):  0.000E+00 5.067E-03

     total cpu time spent up to now is      288.1 secs

     total energy              =   -3716.27976367 Ry
     estimated scf accuracy    <       0.00000924 Ry

     total magnetization       =    37.19 Bohr mag/cell
     absolute magnetization    =    39.39 Bohr mag/cell

     iteration # 16     ecut=    45.00 Ry     beta= 0.10
     Davidson diagonalization with overlap
     ethr =  3.85E-09,  avg # of iterations =  4.6

     negative rho (up, down):  0.000E+00 5.065E-03

     total cpu time spent up to now is      309.3 secs

     total energy              =   -3716.28012803 Ry
     estimated scf accuracy    <       0.00001022 Ry

     total magnetization       =    37.18 Bohr mag/cell
     absolute magnetization    =    39.38 Bohr mag/cell

     iteration # 17     ecut=    45.00 Ry     beta= 0.10
     Davidson diagonalization with overlap
     ethr =  3.85E-09,  avg # of iterations =  5.3

     negative rho (up, down):  0.000E+00 5.048E-03

     total cpu time spent up to now is      336.0 secs

     total energy              =   -3716.28042998 Ry
     estimated scf accuracy    <       0.00002369 Ry

     total magnetization       =    37.18 Bohr mag/cell
     absolute magnetization    =    39.39 Bohr mag/cell

     iteration # 18     ecut=    45.00 Ry     beta= 0.10
     Davidson diagonalization with overlap
     ethr =  3.85E-09,  avg # of iterations =  3.9

     negative rho (up, down):  0.000E+00 5.028E-03

     total cpu time spent up to now is      356.2 secs

     total energy              =   -3716.28066918 Ry
     estimated scf accuracy    <       0.00000120 Ry

     total magnetization       =    37.18 Bohr mag/cell
     absolute magnetization    =    39.39 Bohr mag/cell

     iteration # 19     ecut=    45.00 Ry     beta= 0.10
     Davidson diagonalization with overlap
     ethr =  5.01E-10,  avg # of iterations =  5.3

     negative rho (up, down):  0.000E+00 5.019E-03

     total cpu time spent up to now is      383.8 secs

     total energy              =   -3716.28086371 Ry
     estimated scf accuracy    <       0.00000449 Ry

     total magnetization       =    37.17 Bohr mag/cell
     absolute magnetization    =    39.38 Bohr mag/cell

     iteration # 20     ecut=    45.00 Ry     beta= 0.10
     Davidson diagonalization with overlap
     ethr =  5.01E-10,  avg # of iterations =  4.1

     negative rho (up, down):  0.000E+00 4.927E-03

     Magnetic moment per site  (integrated on atomic sphere of radius R)
     atom   1 (R=0.179)  charge= 14.4362  magn=  2.3268
     atom   2 (R=0.179)  charge= 14.4362  magn=  2.3268
     atom   3 (R=0.179)  charge= 14.4225  magn=  2.5226
     atom   4 (R=0.179)  charge= 14.4362  magn=  2.3268
     atom   5 (R=0.179)  charge= 14.4225  magn=  2.5226
     atom   6 (R=0.179)  charge= 14.4225  magn=  2.5226
     atom   7 (R=0.179)  charge= 14.4261  magn=  2.6518
     atom   8 (R=0.179)  charge= 14.3810  magn=  2.6064
     atom   9 (R=0.179)  charge= 14.3810  magn=  2.6064
     atom  10 (R=0.179)  charge= 14.3810  magn=  2.6064
     atom  11 (R=0.179)  charge= 14.3810  magn=  2.6064
     atom  12 (R=0.179)  charge= 14.3810  magn=  2.6064
     atom  13 (R=0.179)  charge= 14.3810  magn=  2.6064
     atom  14 (R=0.179)  charge= 14.3810  magn=  2.6064
     atom  15 (R=0.179)  charge= 14.3810  magn=  2.6064

     total cpu time spent up to now is      405.5 secs

     End of self-consistent calculation

 ------ SPIN UP ------------


          k = 0.0000 0.0000 0.0000 (  6451 PWs)   bands (ev):

   -72.1519 -72.1213 -72.1213 -72.1213 -72.1165 -72.1165 -72.1165 -72.1126
   -72.0886 -72.0622 -72.0622 -72.0460 -71.7476 -71.7476 -71.7443 -38.3010
   -38.3010 -38.3010 -38.2447 -38.2257 -38.2257 -38.2257 -38.2062 -38.2062
   -38.2062 -38.1718 -38.1699 -38.1699 -38.1699 -38.1071 -38.1071 -38.0757
   -38.0757 -38.0757 -38.0569 -38.0569 -38.0569 -38.0466 -38.0466 -38.0466
   -38.0328 -38.0328 -38.0324 -38.0324 -38.0324 -37.9797 -37.9797 -37.9797
   -37.9577 -37.9577 -37.9577 -37.7418 -37.7418 -37.7418 -37.7054 -37.7054
   -37.7054 -37.7046 -37.7046 -37.7046   8.1430  11.3802  11.4795  11.4795
    11.5574  11.5574  11.5950  11.5950  11.5950  11.7678  11.7678  11.7678
    12.0909  12.0909  12.6009  12.8642  12.8642  12.8642  12.9156  12.9156
    12.9156  12.9941  12.9941  12.9941  13.2530  13.2530  13.2530  13.3558
    13.4989  13.4989  13.4989  13.8967  13.8967  13.9236  13.9236  13.9236
    14.1573  14.1573  14.1573  14.2343  14.2343  14.2343  14.3566  14.3566
    14.3566  14.7718  14.7718  14.7718  14.7936  14.9493  14.9493  15.1302
    15.1302  15.1577  15.1700  15.1700  15.1700  15.2167  15.2167  15.2348
    15.2348  15.2348  15.2784  15.2784  15.3140  15.3140  15.3957  15.7398
    15.7398  15.7398  16.1712  16.1712  16.2880  16.2880  16.2880  16.2896
    16.2896  16.2896  16.4435  16.4435  16.4435  16.6882  16.6882  16.6882

          k = 0.0000 0.0000 0.2500 (  6495 PWs)   bands (ev):

   -72.1492 -72.1258 -72.1206 -72.1206 -72.1175 -72.1175 -72.1161 -72.1130
   -72.0881 -72.0623 -72.0597 -72.0473 -71.7477 -71.7473 -71.7446 -38.3033
   -38.3026 -38.3026 -38.2454 -38.2263 -38.2245 -38.2245 -38.2102 -38.2102
   -38.1966 -38.1825 -38.1591 -38.1591 -38.1557 -38.1269 -38.1206 -38.1101
   -38.1101 -38.0766 -38.0766 -38.0649 -38.0486 -38.0465 -38.0461 -38.0461
   -38.0456 -38.0413 -38.0206 -38.0050 -38.0050 -37.9813 -37.9731 -37.9731
   -37.9583 -37.9583 -37.9526 -37.7436 -37.7407 -37.7407 -37.7158 -37.7158
   -37.7116 -37.7116 -37.7104 -37.7104   8.4405  10.6070  11.5035  11.5464
    11.6358  11.6478  11.6478  11.6748  11.7646  11.8482  11.8482  11.8664
    12.1527  12.2271  12.5913  12.7667  12.7914  12.8000  12.8000  12.8765
    12.9539  12.9539  13.0272  13.1460  13.1460  13.2580  13.2580  13.3578
    13.4024  13.6670  13.6670  13.8270  13.8270  13.8327  13.9037  13.9295
    13.9519  13.9519  14.1236  14.1857  14.1857  14.3800  14.4527  14.5618
    14.6139  14.6139  14.6586  14.6586  14.7011  14.7276  14.9231  14.9231
    14.9423  15.0046  15.0863  15.1496  15.1580  15.2160  15.2222  15.2222
    15.2272  15.2413  15.2440  15.2830  15.3141  15.3421  15.3421  15.3699
    15.4466  15.6200  15.7315  15.7460  15.7460  16.1804  16.1812  16.1812
    16.2479  16.2848  16.4099  16.4099  16.5828  16.7278  16.9334  16.9334

          k = 0.0000 0.0000-0.5000 (  6480 PWs)   bands (ev):

   -72.1447 -72.1318 -72.1191 -72.1191 -72.1190 -72.1190 -72.1146 -72.1146
   -72.0876 -72.0623 -72.0560 -72.0499 -71.7477 -71.7465 -71.7453 -38.2947
   -38.2936 -38.2936 -38.2530 -38.2241 -38.2241 -38.2092 -38.1907 -38.1902
   -38.1853 -38.1853 -38.1750 -38.1750 -38.1552 -38.1436 -38.1401 -38.1332
   -38.1332 -38.0899 -38.0899 -38.0562 -38.0561 -38.0459 -38.0459 -38.0459
   -38.0431 -38.0431 -38.0104 -37.9893 -37.9893 -37.9833 -37.9665 -37.9665
   -37.9525 -37.9525 -37.9446 -37.7434 -37.7321 -37.7321 -37.7264 -37.7264
   -37.7146 -37.7108 -37.7108 -37.7106   9.1489   9.5292  11.6052  11.6419
    11.7661  11.7661  11.8582  11.8586  11.8586  11.9742  11.9932  12.0507
    12.1164  12.2041  12.3408  12.4972  12.5514  12.7658  12.7658  12.7794
    13.0102  13.0102  13.2939  13.3025  13.3123  13.3123  13.4627  13.5029
    13.5029  13.6381  13.6381  13.6636  13.7408  13.7408  13.8131  13.8926
    13.8926  13.9070  13.9294  14.0205  14.0205  14.1775  14.3385  14.3385
    14.5154  14.5154  14.5440  14.5454  14.6585  14.6827  14.8194  14.8620
    14.8620  14.8788  14.9053  15.1524  15.1524  15.1890  15.1956  15.2157
    15.2305  15.2316  15.3050  15.3168  15.3295  15.3295  15.3297  15.3876
    15.7175  15.7513  15.7513  15.8525  15.8622  15.8784  15.8784  15.9318
    15.9890  16.3909  16.5399  16.5399  16.6310  16.8042  16.8056  16.8412

          k = 0.0000 0.2500 0.2500 (  6500 PWs)   bands (ev):

   -72.1464 -72.1252 -72.1245 -72.1199 -72.1187 -72.1168 -72.1168 -72.1136
   -72.0874 -72.0607 -72.0589 -72.0488 -71.7475 -71.7472 -71.7450 -38.2991
   -38.2966 -38.2958 -38.2495 -38.2266 -38.2197 -38.2145 -38.2101 -38.2013
   -38.1978 -38.1882 -38.1741 -38.1566 -38.1530 -38.1468 -38.1363 -38.1218
   -38.0997 -38.0775 -38.0755 -38.0717 -38.0552 -38.0513 -38.0487 -38.0452
   -38.0446 -38.0411 -38.0217 -38.0023 -37.9896 -37.9763 -37.9763 -37.9632
   -37.9593 -37.9573 -37.9571 -37.7423 -37.7364 -37.7355 -37.7191 -37.7190
   -37.7158 -37.7134 -37.7115 -37.7057   8.7385  10.7107  10.8687  11.4914
    11.6889  11.7604  11.8011  11.8269  11.8614  11.9340  11.9788  11.9950
    12.2839  12.3069  12.6313  12.6735  12.7020  12.7989  12.8974  12.9239
    12.9578  12.9909  12.9978  13.0719  13.0906  13.1146  13.2701  13.4356
    13.4372  13.5245  13.6239  13.6976  13.7910  13.7956  13.8138  13.8164
    13.8701  14.0285  14.0718  14.1792  14.2313  14.3727  14.4638  14.4941
    14.5060  14.5097  14.5311  14.6009  14.6120  14.7178  14.7348  14.7814
    14.8041  14.9372  14.9538  15.0543  15.0725  15.1032  15.1556  15.1875
    15.2154  15.2218  15.2350  15.2534  15.2824  15.3789  15.4531  15.4808
    15.5016  15.5294  15.5741  15.6214  15.6678  15.6698  15.6945  15.7932
    15.8956  15.9369  16.3183  16.6717  16.7035  17.7017  17.7947  17.9700

          k = 0.0000 0.2500-0.5000 (  6452 PWs)   bands (ev):

   -72.1421 -72.1306 -72.1230 -72.1203 -72.1184 -72.1183 -72.1151 -72.1151
   -72.0867 -72.0601 -72.0558 -72.0514 -71.7473 -71.7465 -71.7456 -38.2890
   -38.2885 -38.2857 -38.2542 -38.2333 -38.2166 -38.2032 -38.1976 -38.1916
   -38.1844 -38.1796 -38.1754 -38.1736 -38.1683 -38.1486 -38.1385 -38.1332
   -38.1017 -38.0849 -38.0840 -38.0587 -38.0579 -38.0567 -38.0505 -38.0395
   -38.0392 -38.0361 -38.0052 -37.9980 -37.9826 -37.9758 -37.9710 -37.9632
   -37.9609 -37.9540 -37.9525 -37.7371 -37.7268 -37.7267 -37.7238 -37.7229
   -37.7172 -37.7108 -37.7106 -37.7051   9.4234   9.7734  11.0815  11.3524
    11.8299  11.9814  12.0419  12.0469  12.0519  12.0879  12.1311  12.1598
    12.2259  12.2909  12.4146  12.5197  12.6222  12.7847  12.8577  12.8648
    12.9782  13.0608  13.1234  13.1455  13.2367  13.2812  13.3091  13.3519
    13.4685  13.5180  13.6151  13.6189  13.6369  13.7263  13.7354  13.7933
    13.7946  13.8558  13.8775  13.9614  14.0576  14.1321  14.1454  14.2070
    14.3346  14.3992  14.5482  14.6153  14.6947  14.7330  14.8022  14.8531
    14.8804  14.8990  14.9076  14.9416  15.0189  15.0547  15.1208  15.1488
    15.1685  15.1968  15.2318  15.2850  15.2861  15.3346  15.3446  15.3677
    15.4148  15.4352  15.4917  15.5676  15.5810  15.5965  15.6362  15.8545
    15.8970  16.1802  16.1932  17.1717  17.2148  17.2776  17.3822  18.8522

          k = 0.0000-0.5000-0.5000 (  6496 PWs)   bands (ev):

   -72.1377 -72.1288 -72.1288 -72.1223 -72.1168 -72.1168 -72.1168 -72.1168
   -72.0861 -72.0558 -72.0558 -72.0552 -71.7465 -71.7465 -71.7465 -38.2867
   -38.2796 -38.2796 -38.2585 -38.2488 -38.2075 -38.2075 -38.2059 -38.1955
   -38.1897 -38.1863 -38.1863 -38.1720 -38.1720 -38.1449 -38.1358 -38.1307
   -38.0773 -38.0773 -38.0751 -38.0694 -38.0694 -38.0673 -38.0671 -38.0371
   -38.0371 -38.0351 -38.0143 -37.9936 -37.9837 -37.9837 -37.9799 -37.9715
   -37.9646 -37.9595 -37.9595 -37.7319 -37.7256 -37.7256 -37.7234 -37.7234
   -37.7215 -37.7154 -37.7148 -37.7037  10.1212  10.2221  10.2221  10.8167
    12.0914  12.1321  12.1321  12.2156  12.2505  12.3037  12.3037  12.3862
    12.4113  12.4113  12.5680  12.6512  12.6606  12.6606  12.7939  12.8230
    12.8902  12.9350  12.9768  13.0362  13.0362  13.1485  13.1485  13.4128
    13.4374  13.4407  13.4794  13.4794  13.6455  13.6662  13.6662  13.7134
    13.7134  13.7249  13.7701  13.8277  13.8597  13.8597  14.0850  14.1600
    14.2373  14.3347  14.5134  14.5134  14.7887  14.8152  14.8228  14.8228
    14.9250  14.9250  14.9769  14.9981  15.0089  15.0089  15.0143  15.0288
    15.0335  15.0335  15.0335  15.1060  15.1975  15.2218  15.2218  15.2920
    15.3189  15.3189  15.3342  15.4078  15.4424  15.5329  15.5329  15.9149
    15.9149  16.2903  16.2918  17.9119  18.0758  18.0758  18.2747  18.3866

          k = 0.2500 0.2500 0.2500 (  6493 PWs)   bands (ev):

   -72.1437 -72.1242 -72.1242 -72.1231 -72.1181 -72.1179 -72.1179 -72.1145
   -72.0864 -72.0588 -72.0588 -72.0502 -71.7471 -71.7471 -71.7454 -38.2922
   -38.2890 -38.2890 -38.2513 -38.2233 -38.2162 -38.2162 -38.2080 -38.1906
   -38.1901 -38.1901 -38.1717 -38.1717 -38.1573 -38.1573 -38.1455 -38.1066
   -38.0917 -38.0917 -38.0817 -38.0817 -38.0670 -38.0556 -38.0556 -38.0422
   -38.0409 -38.0409 -38.0156 -37.9893 -37.9893 -37.9801 -37.9670 -37.9670
   -37.9583 -37.9583 -37.9545 -37.7407 -37.7327 -37.7327 -37.7220 -37.7186
   -37.7186 -37.7149 -37.7078 -37.7078   9.0297  10.9257  10.9257  11.1293
    11.6691  11.6691  11.8171  11.9749  11.9749  12.0676  12.1168  12.1168
    12.4521  12.4521  12.6285  12.6704  12.6976  12.8561  12.8561  12.9413
    12.9413  12.9919  13.0232  13.0628  13.0628  13.2114  13.2114  13.3197
    13.4489  13.4489  13.4652  13.6328  13.6328  13.6752  13.6752  13.7715
    13.7715  13.8677  13.8681  14.0715  14.0715  14.1440  14.2947  14.2947
    14.3715  14.3715  14.4916  14.6234  14.6581  14.6937  14.6937  14.8968
    14.9578  14.9578  14.9844  15.0578  15.0627  15.0627  15.1298  15.1298
    15.2067  15.2067  15.2072  15.2207  15.2207  15.2659  15.2996  15.2996
    15.4898  15.4934  15.4934  15.6881  15.6881  15.6979  15.8093  15.8093
    15.9528  15.9528  15.9728  16.7156  16.7156  16.8044  18.6538  18.6538

          k = 0.2500 0.2500-0.5000 (  6456 PWs)   bands (ev):

   -72.1396 -72.1293 -72.1225 -72.1216 -72.1197 -72.1195 -72.1163 -72.1160
   -72.0856 -72.0587 -72.0557 -72.0526 -71.7471 -71.7465 -71.7459 -38.2830
   -38.2823 -38.2815 -38.2521 -38.2297 -38.2238 -38.2037 -38.1973 -38.1954
   -38.1843 -38.1766 -38.1723 -38.1647 -38.1636 -38.1539 -38.1497 -38.1060
   -38.0992 -38.0974 -38.0795 -38.0719 -38.0714 -38.0712 -38.0622 -38.0376
   -38.0369 -38.0367 -38.0067 -37.9981 -37.9782 -37.9693 -37.9678 -37.9659
   -37.9629 -37.9545 -37.9520 -37.7362 -37.7301 -37.7270 -37.7227 -37.7209
   -37.7191 -37.7144 -37.7088 -37.7055   9.7003  10.0256  11.3059  11.3356
    11.4662  11.7071  12.1700  12.2089  12.2237  12.2484  12.2792  12.2885
    12.2940  12.4144  12.4606  12.5853  12.7248  12.8376  12.8535  12.9523
    13.0149  13.0222  13.0344  13.1283  13.1674  13.2253  13.2425  13.2708
    13.3584  13.3817  13.5281  13.5363  13.5615  13.5765  13.5988  13.6056
    13.6266  13.6335  13.6382  13.6627  13.8542  13.9908  14.0056  14.0855
    14.1081  14.3259  14.4838  14.5076  14.7991  14.8620  14.8700  14.8886
    14.8975  14.9061  14.9130  14.9606  15.0495  15.0626  15.1310  15.1539
    15.1561  15.1937  15.2212  15.2831  15.2934  15.3145  15.3322  15.3451
    15.3592  15.4962  15.5200  15.5593  15.6448  15.7974  15.9400  15.9583
    15.9718  16.0043  16.0508  16.1294  16.1617  17.8101  18.1288  19.3606

          k = 0.2500-0.5000-0.5000 (  6472 PWs)   bands (ev):

   -72.1354 -72.1275 -72.1275 -72.1215 -72.1204 -72.1181 -72.1181 -72.1175
   -72.0847 -72.0556 -72.0556 -72.0553 -71.7465 -71.7465 -71.7465 -38.2778
   -38.2736 -38.2736 -38.2505 -38.2378 -38.2118 -38.2118 -38.2082 -38.1865
   -38.1806 -38.1793 -38.1793 -38.1619 -38.1557 -38.1557 -38.1416 -38.1044
   -38.0880 -38.0880 -38.0869 -38.0845 -38.0833 -38.0797 -38.0797 -38.0391
   -38.0365 -38.0365 -38.0207 -37.9847 -37.9804 -37.9804 -37.9677 -37.9606
   -37.9596 -37.9545 -37.9545 -37.7326 -37.7304 -37.7304 -37.7279 -37.7201
   -37.7201 -37.7184 -37.7090 -37.7066  10.3825  10.4924  10.4924  11.0214
    11.7913  11.9821  11.9821  12.2961  12.3394  12.3394  12.3911  12.5828
    12.6152  12.6424  12.6424  12.7112  12.7112  12.8153  12.8222  12.8293
    12.8724  13.0036  13.0036  13.0203  13.0337  13.1016  13.1016  13.2298
    13.2872  13.2872  13.3057  13.3393  13.3612  13.4338  13.4338  13.4807
    13.4807  13.4883  13.5703  13.6323  13.6323  13.6897  13.7761  13.7976
    13.9658  14.3522  14.3522  14.3805  14.9208  14.9694  14.9694  15.0047
    15.0348  15.0348  15.0886  15.0889  15.1169  15.1533  15.1716  15.1716
    15.2106  15.2106  15.2174  15.2213  15.2446  15.2645  15.2645  15.3666
    15.3666  15.3832  15.4383  15.5184  15.5356  15.5614  15.5614  15.8063
    15.8063  16.0216  16.0328  16.7722  16.9032  16.9032  17.1390  20.3022

          k =-0.5000-0.5000-0.5000 (  6488 PWs)   bands (ev):

   -72.1313 -72.1258 -72.1258 -72.1258 -72.1201 -72.1201 -72.1201 -72.1189
   -72.0833 -72.0554 -72.0554 -72.0554 -71.7465 -71.7465 -71.7465 -38.2661
   -38.2661 -38.2661 -38.2499 -38.2232 -38.2170 -38.2170 -38.2170 -38.1731
   -38.1731 -38.1668 -38.1668 -38.1668 -38.1423 -38.1423 -38.1423 -38.1004
   -38.1004 -38.1004 -38.0990 -38.0990 -38.0987 -38.0987 -38.0987 -38.0352
   -38.0352 -38.0352 -38.0296 -37.9745 -37.9745 -37.9745 -37.9625 -37.9625
   -37.9560 -37.9560 -37.9560 -37.7324 -37.7324 -37.7324 -37.7296 -37.7229
   -37.7229 -37.7229 -37.7109 -37.7109  11.0094  11.1171  11.1171  11.1171
    11.3183  11.3183  11.3183  12.3152  12.7093  12.7093  12.7304  12.7304
    12.7304  12.7386  12.7386  12.7386  12.8432  12.8432  12.8432  12.9495
    12.9495  12.9495  13.0562  13.0562  13.1068  13.1068  13.1068  13.1292
    13.1292  13.1292  13.1709  13.1709  13.1709  13.2010  13.2235  13.2235
    13.2674  13.2674  13.2674  13.2958  13.2958  13.2958  13.3507  13.8165
    13.8165  14.3030  14.3030  14.3030  15.0347  15.0347  15.0469  15.0469
    15.0469  15.0611  15.0611  15.0611  15.1731  15.1731  15.1731  15.1771
    15.1771  15.1771  15.4037  15.4037  15.4757  15.4757  15.4757  15.5252
    15.5252  15.5252  15.5921  15.5921  15.6144  15.6144  15.6144  15.8856
    15.8856  15.8856  16.1297  16.1314  16.1987  16.1987  16.1987  22.7215

 ------ SPIN DOWN ----------


          k = 0.0000 0.0000 0.0000 (  6451 PWs)   bands (ev):

   -68.9293 -68.8911 -68.8911 -68.8595 -68.8595 -68.8595 -68.8559 -68.8544
   -68.8544 -68.8544 -68.8496 -68.8213 -68.8213 -68.7987 -68.7603 -35.2032
   -35.2032 -35.2032 -35.1565 -35.1565 -35.1565 -35.0619 -35.0619 -35.0619
   -35.0234 -35.0234 -35.0002 -35.0002 -35.0002 -34.9994 -34.9994 -34.9994
   -34.9709 -34.9576 -34.9576 -34.9576 -34.9517 -34.9517 -34.9517 -34.9385
   -34.9385 -34.9385 -34.9371 -34.9371 -34.9102 -34.9102 -34.9102 -34.8943
   -34.8943 -34.8943 -34.8862 -34.7800 -34.7800 -34.7800 -34.7798 -34.7798
   -34.7798 -34.7632 -34.7632 -34.7632   8.3007  12.2937  12.2937  12.4156
    12.4156  12.4156  12.5217  13.0470  13.0470  13.0892  13.0892  13.0892
    13.8354  13.8354  13.9004  14.7864  14.7864  14.7864  14.8008  14.8008
    14.8008  14.9962  14.9962  14.9962  15.4976  15.4976  15.4976  15.7173
    15.7310  15.7310  15.7310  16.3724  16.3724  16.3724  16.3941  16.3941
    16.5304  16.5304  16.5304  16.5622  16.5622  16.5622  16.6836  16.6836
    16.6836  16.7770  16.7770  16.7770  17.2281  17.2281  17.2281  17.5006
    17.5006  17.5437  17.5437  17.5437  17.7871  17.9769  17.9769  17.9769
    18.1112  18.1112  18.1539  18.2494  18.2494  18.3893  18.3893  18.3910
    18.3910  18.3910  18.4267  18.4267  18.4313  18.6802  18.6802  18.6802
    18.8464  18.8464  19.0115  19.0115  19.0115  19.0245  19.0245  19.0245

          k = 0.0000 0.0000 0.2500 (  6495 PWs)   bands (ev):

   -68.9251 -68.8978 -68.8911 -68.8623 -68.8588 -68.8588 -68.8552 -68.8552
   -68.8537 -68.8532 -68.8502 -68.8214 -68.8169 -68.8001 -68.7609 -35.1968
   -35.1968 -35.1964 -35.1498 -35.1498 -35.1489 -35.0779 -35.0779 -35.0706
   -35.0680 -35.0511 -35.0446 -35.0446 -35.0168 -35.0168 -34.9974 -34.9813
   -34.9652 -34.9652 -34.9527 -34.9514 -34.9510 -34.9455 -34.9221 -34.9221
   -34.9173 -34.9173 -34.9118 -34.9079 -34.8968 -34.8968 -34.8916 -34.8916
   -34.8907 -34.8690 -34.8690 -34.8096 -34.8003 -34.8003 -34.7982 -34.7982
   -34.7982 -34.7747 -34.7747 -34.7734   8.6026  10.8925  12.4473  12.5808
    12.5808  12.5927  13.0540  13.0613  13.0613  13.1110  13.2852  13.4242
    13.8987  13.9695  14.0282  14.5454  14.5694  14.7591  14.7591  14.9753
    14.9753  15.0825  15.0825  15.0903  15.1284  15.4119  15.4119  15.5059
    15.6555  15.7083  15.7083  16.1264  16.1310  16.1409  16.1453  16.1453
    16.2036  16.2036  16.3030  16.3030  16.3106  16.5353  16.5353  16.7033
    16.7589  16.8292  16.9070  16.9070  17.0882  17.1072  17.1072  17.3362
    17.5935  17.5935  17.6496  17.9293  17.9375  17.9459  17.9459  17.9945
    18.0184  18.0937  18.1413  18.1529  18.3130  18.3358  18.3747  18.3976
    18.4229  18.4962  18.4962  18.5646  18.6749  18.6864  18.7715  18.7715
    18.8072  18.9010  18.9024  18.9024  18.9034  18.9947  19.0476  19.0476

          k = 0.0000 0.0000-0.5000 (  6480 PWs)   bands (ev):

   -68.9166 -68.9085 -68.8911 -68.8634 -68.8570 -68.8570 -68.8570 -68.8570
   -68.8522 -68.8520 -68.8520 -68.8215 -68.8116 -68.8025 -68.7616 -35.1539
   -35.1482 -35.1482 -35.1467 -35.1467 -35.1270 -35.1254 -35.1254 -35.1186
   -35.1023 -35.0692 -35.0692 -35.0666 -35.0202 -35.0202 -35.0061 -34.9850
   -34.9850 -34.9662 -34.9657 -34.9505 -34.9505 -34.9435 -34.9240 -34.9240
   -34.9050 -34.9040 -34.8849 -34.8728 -34.8728 -34.8639 -34.8603 -34.8603
   -34.8567 -34.8460 -34.8336 -34.8336 -34.8315 -34.8315 -34.8187 -34.8165
   -34.8165 -34.7804 -34.7804 -34.7784   9.3262   9.7164  12.6506  12.7277
    12.8724  12.8724  12.9377  12.9377  13.0448  13.3325  13.6708  13.7013
    13.9104  14.1208  14.1471  14.1567  14.2568  14.7642  14.7890  14.7890
    14.9528  14.9528  15.4589  15.4589  15.4917  15.4943  15.5185  15.5185
    15.5197  15.5197  15.5508  15.5509  15.5722  15.5995  15.5995  15.9284
    15.9284  15.9827  16.0691  16.0691  16.2100  16.3127  16.3127  16.4218
    16.6595  16.9679  16.9679  17.4258  17.4653  17.5412  17.5473  17.5473
    17.5814  17.6519  17.6812  17.6812  17.7839  17.9083  17.9083  17.9608
    18.2073  18.2505  18.2951  18.3269  18.3269  18.3736  18.3791  18.3912
    18.3915  18.4312  18.5043  18.5198  18.5642  18.5765  18.6388  18.6388
    18.7569  18.7650  18.8976  18.9542  18.9542  19.0022  19.0991  19.1043

          k = 0.0000 0.2500 0.2500 (  6500 PWs)   bands (ev):

   -68.9211 -68.8990 -68.8947 -68.8651 -68.8580 -68.8577 -68.8559 -68.8545
   -68.8545 -68.8524 -68.8510 -68.8186 -68.8153 -68.8016 -68.7614 -35.1912
   -35.1823 -35.1744 -35.1469 -35.1394 -35.1293 -35.1106 -35.1049 -35.0960
   -35.0796 -35.0540 -35.0482 -35.0315 -35.0189 -34.9970 -34.9920 -34.9920
   -34.9803 -34.9684 -34.9681 -34.9586 -34.9576 -34.9467 -34.9415 -34.9364
   -34.9335 -34.9211 -34.9060 -34.8976 -34.8953 -34.8867 -34.8797 -34.8749
   -34.8518 -34.8492 -34.8419 -34.8292 -34.8175 -34.8085 -34.8050 -34.8014
   -34.7837 -34.7771 -34.7763 -34.7744   8.9049  11.0231  11.2316  12.5236
    12.7068  12.7638  13.2128  13.2676  13.2968  13.4220  13.4862  13.6006
    13.9972  14.0287  14.1678  14.4874  14.5023  14.8175  14.8277  14.9140
    14.9526  15.0080  15.0469  15.0736  15.1559  15.1582  15.2667  15.5511
    15.5740  15.6105  15.6596  15.7627  15.8317  15.8726  15.9346  15.9358
    15.9630  16.1106  16.2177  16.2595  16.2806  16.3421  16.3727  16.5024
    16.7268  16.8289  16.8831  17.1265  17.1376  17.2857  17.3201  17.3345
    17.4077  17.5852  17.6252  17.9030  17.9081  17.9727  18.0093  18.0456
    18.0626  18.1717  18.2095  18.2362  18.2557  18.2752  18.3104  18.3316
    18.3838  18.3838  18.4355  18.4430  18.4792  18.5152  18.5386  18.6011
    18.6570  18.7755  19.0377  19.0738  19.1667  19.6148  19.6949  19.8406

          k = 0.0000 0.2500-0.5000 (  6452 PWs)   bands (ev):

   -68.9133 -68.9070 -68.8954 -68.8669 -68.8569 -68.8568 -68.8563 -68.8563
   -68.8527 -68.8527 -68.8518 -68.8175 -68.8107 -68.8046 -68.7618 -35.1595
   -35.1543 -35.1422 -35.1418 -35.1373 -35.1343 -35.1282 -35.1228 -35.1205
   -35.0698 -35.0634 -35.0611 -35.0303 -35.0302 -35.0173 -34.9973 -34.9830
   -34.9811 -34.9705 -34.9665 -34.9661 -34.9462 -34.9444 -34.9405 -34.9275
   -34.9237 -34.9185 -34.9068 -34.8984 -34.8921 -34.8864 -34.8661 -34.8566
   -34.8298 -34.8289 -34.8275 -34.8268 -34.8243 -34.8147 -34.8142 -34.7990
   -34.7953 -34.7781 -34.7774 -34.7756   9.6123   9.9783  11.5912  11.9807
    12.9239  13.0759  13.1758  13.3587  13.6454  13.7067  13.7632  13.7887
    13.9752  14.1201  14.1869  14.2224  14.3634  14.7528  14.8582  14.8869
    14.9018  14.9931  15.0568  15.2064  15.2070  15.2929  15.3140  15.3295
    15.4414  15.5017  15.5261  15.5429  15.5626  15.6879  15.6932  15.7411
    15.8465  15.9121  15.9873  16.0564  16.0669  16.1445  16.1965  16.5768
    16.6042  16.8944  17.1597  17.3305  17.3907  17.4300  17.4381  17.5117
    17.5985  17.6234  17.6475  17.6553  17.6846  17.8160  17.8771  17.9438
    18.0181  18.1432  18.1574  18.1802  18.2945  18.2965  18.3252  18.3628
    18.3831  18.4368  18.4379  18.4408  18.4507  18.4706  18.4776  18.7028
    18.7416  18.8579  18.8975  19.3802  19.4233  19.4537  19.5328  20.4592

          k = 0.0000-0.5000-0.5000 (  6496 PWs)   bands (ev):

   -68.9053 -68.9053 -68.9045 -68.8703 -68.8568 -68.8568 -68.8546 -68.8545
   -68.8545 -68.8545 -68.8516 -68.8106 -68.8098 -68.8098 -68.7620 -35.1532
   -35.1507 -35.1470 -35.1470 -35.1400 -35.1400 -35.1315 -35.1312 -35.1217
   -35.0575 -35.0386 -35.0386 -35.0146 -35.0146 -34.9939 -34.9939 -34.9915
   -34.9877 -34.9771 -34.9767 -34.9733 -34.9609 -34.9569 -34.9569 -34.9533
   -34.9418 -34.9418 -34.9383 -34.9290 -34.9154 -34.8680 -34.8623 -34.8623
   -34.8263 -34.8263 -34.8223 -34.8223 -34.8209 -34.8153 -34.8112 -34.7880
   -34.7809 -34.7791 -34.7767 -34.7767  10.3647  10.4898  10.4898  11.1560
    13.3911  13.3942  13.5326  13.5326  13.6613  13.6613  13.8091  14.0265
    14.0295  14.0295  14.4109  14.4187  14.5625  14.5625  14.6863  14.7679
    14.8222  14.8395  14.9284  15.1031  15.1031  15.1077  15.1077  15.3000
    15.3653  15.4036  15.4036  15.4393  15.4393  15.5858  15.6156  15.6446
    15.7629  15.8438  16.0158  16.0158  16.0930  16.1316  16.1316  16.5367
    16.6945  16.7914  17.0155  17.0155  17.2751  17.2751  17.4002  17.6358
    17.6544  17.7001  17.7559  17.7559  17.8164  17.8164  17.8505  17.8680
    17.8733  17.9579  17.9579  18.1177  18.1531  18.2160  18.2369  18.2369
    18.3211  18.3231  18.3231  18.4186  18.4245  18.4245  18.4347  18.7992
    18.7992  18.9977  18.9998  19.8642  20.1430  20.1430  20.3063  20.3217

          k = 0.2500 0.2500 0.2500 (  6493 PWs)   bands (ev):

   -68.9176 -68.8983 -68.8983 -68.8663 -68.8611 -68.8611 -68.8565 -68.8533
   -68.8518 -68.8518 -68.8495 -68.8152 -68.8152 -68.8031 -68.7616 -35.1774
   -35.1617 -35.1617 -35.1347 -35.1347 -35.1220 -35.1174 -35.1174 -35.1121
   -35.0523 -35.0523 -35.0499 -35.0499 -35.0224 -35.0153 -35.0153 -35.0097
   -35.0033 -34.9843 -34.9735 -34.9735 -34.9450 -34.9450 -34.9218 -34.9134
   -34.9134 -34.9053 -34.9053 -34.9014 -34.8938 -34.8938 -34.8909 -34.8864
   -34.8419 -34.8314 -34.8302 -34.8302 -34.8151 -34.8151 -34.8038 -34.7954
   -34.7954 -34.7782 -34.7776 -34.7776   9.2014  11.2711  11.2711  11.5656
    12.6993  12.6993  12.9534  13.6398  13.6508  13.6508  13.7582  13.7582
    14.1456  14.1456  14.2034  14.3496  14.5482  14.7749  14.8297  14.8297
    14.9505  14.9505  15.0738  15.0942  15.0942  15.2032  15.2032  15.4790
    15.5003  15.5436  15.5436  15.5921  15.5921  15.6626  15.7827  15.7827
    15.9062  15.9062  15.9180  16.0795  16.0795  16.2071  16.2071  16.3912
    16.6496  16.8987  16.8987  17.2424  17.3312  17.3452  17.5291  17.5291
    17.5950  17.5950  17.6331  17.8263  17.8263  17.9357  18.0138  18.0210
    18.0210  18.1615  18.1615  18.2579  18.2579  18.2797  18.3369  18.3369
    18.3399  18.3828  18.3828  18.4867  18.4867  18.5699  18.5699  18.5924
    18.6680  18.6716  18.6716  19.0733  19.0733  19.1316  20.3936  20.3936

          k = 0.2500 0.2500-0.5000 (  6456 PWs)   bands (ev):

   -68.9106 -68.9056 -68.8976 -68.8670 -68.8633 -68.8624 -68.8571 -68.8546
   -68.8505 -68.8501 -68.8487 -68.8151 -68.8103 -68.8061 -68.7619 -35.1539
   -35.1501 -35.1418 -35.1406 -35.1291 -35.1285 -35.1169 -35.1164 -35.0901
   -35.0724 -35.0671 -35.0527 -35.0368 -35.0329 -35.0309 -35.0119 -35.0065
   -34.9998 -34.9945 -34.9737 -34.9689 -34.9596 -34.9520 -34.9402 -34.9165
   -34.9104 -34.8971 -34.8958 -34.8957 -34.8893 -34.8787 -34.8693 -34.8599
   -34.8465 -34.8396 -34.8275 -34.8243 -34.8211 -34.8085 -34.8042 -34.8020
   -34.7950 -34.7791 -34.7790 -34.7779   9.8982  10.2435  11.8079  11.8784
    12.0609  12.3897  13.2677  13.7294  13.8494  13.8575  13.9756  14.0251
    14.0654  14.1579  14.2509  14.3723  14.5313  14.7873  14.8859  14.9116
    14.9263  14.9463  15.0169  15.0642  15.0988  15.1500  15.2029  15.2186
    15.3695  15.4351  15.4543  15.4804  15.5229  15.5506  15.6698  15.6734
    15.6795  15.7371  15.8622  15.8718  15.9177  16.0191  16.0453  16.3656
    16.5341  16.9744  17.0068  17.0670  17.4449  17.4966  17.5760  17.5967
    17.7416  17.7560  17.7641  17.7951  17.8680  17.9258  17.9374  18.0374
    18.1116  18.1505  18.1675  18.2433  18.2495  18.2622  18.3485  18.3498
    18.3577  18.3797  18.3811  18.4305  18.4608  18.4748  18.5769  18.6117
    18.6174  18.6371  18.6438  18.7363  18.7690  19.9096  20.1936  20.9818

          k = 0.2500-0.5000-0.5000 (  6472 PWs)   bands (ev):

   -68.9041 -68.9041 -68.9036 -68.8694 -68.8642 -68.8642 -68.8597 -68.8556
   -68.8482 -68.8482 -68.8474 -68.8104 -68.8100 -68.8100 -68.7620 -35.1379
   -35.1360 -35.1353 -35.1353 -35.1236 -35.1198 -35.1198 -35.1153 -35.0986
   -35.0589 -35.0448 -35.0448 -35.0351 -35.0307 -35.0307 -35.0304 -35.0231
   -35.0231 -35.0207 -35.0005 -34.9930 -34.9473 -34.9473 -34.9398 -34.9039
   -34.9039 -34.9018 -34.9016 -34.8989 -34.8929 -34.8643 -34.8643 -34.8629
   -34.8400 -34.8400 -34.8314 -34.8219 -34.8191 -34.8191 -34.8119 -34.8038
   -34.7957 -34.7812 -34.7812 -34.7796  10.6339  10.7665  10.7665  11.3637
    12.4063  12.6234  12.6234  13.3569  14.1925  14.2125  14.2125  14.2212
    14.3299  14.3299  14.4665  14.6187  14.6187  14.6759  14.6894  14.7233
    14.8683  14.9642  14.9642  15.0252  15.0311  15.1511  15.1511  15.2042
    15.2102  15.3362  15.3362  15.3876  15.3876  15.4617  15.4808  15.4932
    15.6776  15.7304  15.7304  15.8040  15.8040  15.8850  15.9129  15.9567
    16.2154  16.9810  16.9810  17.0423  17.7245  17.7245  17.7855  17.8420
    17.8788  17.9082  17.9082  17.9153  17.9153  17.9186  17.9448  17.9777
    17.9994  18.0363  18.0363  18.1408  18.1898  18.2050  18.2050  18.2050
    18.2478  18.3144  18.3144  18.3496  18.3765  18.3765  18.4330  18.6315
    18.6315  18.6572  18.6791  19.1627  19.2456  19.2456  19.4349  21.8472

          k =-0.5000-0.5000-0.5000 (  6488 PWs)   bands (ev):

   -68.9027 -68.9027 -68.9027 -68.8683 -68.8683 -68.8683 -68.8627 -68.8569
   -68.8453 -68.8453 -68.8453 -68.8101 -68.8101 -68.8101 -68.7619 -35.1079
   -35.1079 -35.1079 -35.1062 -35.1062 -35.0930 -35.0930 -35.0930 -35.0775
   -35.0775 -35.0775 -35.0689 -35.0689 -35.0661 -35.0619 -35.0619 -35.0619
   -35.0239 -35.0239 -35.0239 -35.0164 -34.9367 -34.9367 -34.9367 -34.8753
   -34.8753 -34.8753 -34.8661 -34.8661 -34.8661 -34.8645 -34.8645 -34.8597
   -34.8517 -34.8517 -34.8517 -34.8318 -34.8318 -34.8318 -34.8246 -34.8195
   -34.8195 -34.7858 -34.7858 -34.7858  11.3338  11.4264  11.4264  11.4264
    11.6757  11.6757  11.6757  12.8580  14.5639  14.5639  14.5941  14.5941
    14.5941  14.6642  14.6642  14.6642  14.6781  14.6781  14.6781  14.9664
    14.9664  14.9664  15.1520  15.1520  15.1824  15.1824  15.1824  15.2283
    15.2294  15.2294  15.2294  15.2323  15.2323  15.2323  15.2613  15.2613
    15.3213  15.3213  15.3213  15.5087  15.5087  15.5087  15.5379  15.9684
    15.9684  17.0017  17.0017  17.0017  18.0816  18.0816  18.0816  18.1051
    18.1051  18.1184  18.1184  18.1184  18.1319  18.1319  18.1319  18.1375
    18.1375  18.1375  18.1582  18.1582  18.1582  18.1628  18.1628  18.1808
    18.1808  18.1808  18.1886  18.1886  18.3508  18.3508  18.3508  18.4203
    18.4203  18.4203  18.6541  18.6842  18.6842  18.6842  18.6971  23.8777

     the Fermi energy is    16.2310 ev

!    total energy              =   -3716.28170360 Ry
     estimated scf accuracy    <       0.00000050 Ry
     smearing contrib. (-TS)   =       0.01481138 Ry
     internal energy E=F+TS    =   -3716.29651499 Ry

     The total energy is F=E-TS. E is the sum of the following terms:
     one-electron contribution =   -1899.08022808 Ry
     hartree contribution      =    1074.34053042 Ry
     xc contribution           =    -416.26384088 Ry
     ewald contribution        =   -2475.29297644 Ry

     total magnetization       =    37.17 Bohr mag/cell
     absolute magnetization    =    39.38 Bohr mag/cell

     convergence has been achieved in  20 iterations

     negative rho (up, down):  0.000E+00 4.927E-03

     Forces acting on atoms (cartesian axes, Ry/au):

     atom    1 type  1   force =     0.00000000    0.00000000    0.00000000
     atom    2 type  1   force =     0.00000000    0.00000000    0.00000000
     atom    3 type  1   force =     0.00000000    0.00000000    0.00000000
     atom    4 type  1   force =     0.00000000    0.00000000    0.00000000
     atom    5 type  1   force =     0.00000000    0.00000000    0.00000000
     atom    6 type  1   force =     0.00000000    0.00000000    0.00000000
     atom    7 type  1   force =     0.00000000    0.00000000    0.00000000
     atom    8 type  1   force =    -0.01210064   -0.01210064   -0.01210064
     atom    9 type  1   force =     0.01210064   -0.01210064   -0.01210064
     atom   10 type  1   force =    -0.01210064    0.01210064   -0.01210064
     atom   11 type  1   force =     0.01210064    0.01210064   -0.01210064
     atom   12 type  1   force =    -0.01210064   -0.01210064    0.01210064
     atom   13 type  1   force =     0.01210064   -0.01210064    0.01210064
     atom   14 type  1   force =    -0.01210064    0.01210064    0.01210064
     atom   15 type  1   force =     0.01210064    0.01210064    0.01210064

     Total force =     0.059281     Total SCF correction =     0.000859

     BFGS Geometry Optimization
     Energy error            =      3.5E-03 Ry
     Gradient error          =      1.2E-02 Ry/Bohr

     number of scf cycles    =   1
     number of bfgs steps    =   0

     energy             new  =   -3716.2817036040 Ry

     new trust radius        =       0.0209589204 bohr
     new conv_thr            =       0.0000010000 Ry


ATOMIC_POSITIONS (crystal)
Fe               0.5000000000        0.0000000000        0.0000000000
Fe               0.0000000000        0.5000000000        0.0000000000
Fe               0.5000000000        0.5000000000        0.0000000000
Fe               0.0000000000        0.0000000000        0.5000000000
Fe               0.5000000000        0.0000000000        0.5000000000
Fe               0.0000000000        0.5000000000        0.5000000000
Fe               0.5000000000        0.5000000000        0.5000000000
Fe               0.2488828805        0.2488828805        0.2488828805
Fe               0.7511171195        0.2488828805        0.2488828805
Fe               0.2488828805        0.7511171195        0.2488828805
Fe               0.7511171195        0.7511171195        0.2488828805
Fe               0.2488828805        0.2488828805        0.7511171195
Fe               0.7511171195        0.2488828805        0.7511171195
Fe               0.2488828805        0.7511171195        0.7511171195
Fe               0.7511171195        0.7511171195        0.7511171195



     Writing config-only to output data dir ./outdir/fe15_vacancy.save/ :
     XML data file
     NEW-OLD atomic charge density approx. for the potential

     Check: negative core charge=   -0.000004

     negative rho (up, down):  0.000E+00 4.783E-03
     Generating pointlists ...

     total cpu time spent up to now is      408.7 secs

     per-process dynamical memory:   139.3 Mb

     Self-consistent Calculation

     iteration #  1     ecut=    45.00 Ry     beta= 0.10
     Davidson diagonalization with overlap
     ethr =  1.00E-06,  avg # of iterations =  7.7

     negative rho (up, down):  0.000E+00 4.715E-03

     total cpu time spent up to now is      449.4 secs

     total energy              =   -3716.28483336 Ry
     estimated scf accuracy    <       0.00600122 Ry

     total magnetization       =    37.20 Bohr mag/cell
     absolute magnetization    =    39.43 Bohr mag/cell

     iteration #  2     ecut=    45.00 Ry     beta= 0.10
     Davidson diagonalization with overlap
     ethr =  2.50E-06,  avg # of iterations =  1.0

     negative rho (up, down):  0.000E+00 4.603E-03

     total cpu time spent up to now is      463.6 secs

     total energy              =   -3716.28477274 Ry
     estimated scf accuracy    <       0.00292728 Ry

     total magnetization       =    37.18 Bohr mag/cell
     absolute magnetization    =    39.41 Bohr mag/cell

     iteration #  3     ecut=    45.00 Ry     beta= 0.10
     Davidson diagonalization with overlap
     ethr =  1.22E-06,  avg # of iterations =  1.4

     negative rho (up, down):  0.000E+00 4.375E-03

     total cpu time spent up to now is      478.3 secs

     total energy              =   -3716.28478517 Ry
     estimated scf accuracy    <       0.00056793 Ry

     total magnetization       =    37.15 Bohr mag/cell
     absolute magnetization    =    39.39 Bohr mag/cell

     iteration #  4     ecut=    45.00 Ry     beta= 0.10
     Davidson diagonalization with overlap
     ethr =  2.37E-07,  avg # of iterations =  2.0

     negative rho (up, down):  0.000E+00 4.268E-03

     total cpu time spent up to now is      495.6 secs

     total energy              =   -3716.28477984 Ry
     estimated scf accuracy    <       0.00026900 Ry

     total magnetization       =    37.16 Bohr mag/cell
     absolute magnetization    =    39.40 Bohr mag/cell

     iteration #  5     ecut=    45.00 Ry     beta= 0.10
     Davidson diagonalization with overlap
     ethr =  1.12E-07,  avg # of iterations =  2.8

     negative rho (up, down):  0.000E+00 4.290E-03

     total cpu time spent up to now is      512.5 secs

     total energy              =   -3716.28484505 Ry
     estimated scf accuracy    <       0.00002392 Ry

     total magnetization       =    37.15 Bohr mag/cell
     absolute magnetization    =    39.38 Bohr mag/cell

     iteration #  6     ecut=    45.00 Ry     beta= 0.10
     Davidson diagonalization with overlap
     ethr =  9.97E-09,  avg # of iterations =  3.9

     negative rho (up, down):  0.000E+00 4.280E-03

     total cpu time spent up to now is      530.7 secs

     total energy              =   -3716.28486269 Ry
     estimated scf accuracy    <       0.00000428 Ry

     total magnetization       =    37.15 Bohr mag/cell
     absolute magnetization    =    39.38 Bohr mag/cell

     iteration #  7     ecut=    45.00 Ry     beta= 0.10
     Davidson diagonalization with overlap
     ethr =  1.78E-09,  avg # of iterations =  4.3

     negative rho (up, down):  0.000E+00 4.277E-03

     total cpu time spent up to now is      550.8 secs

     total energy              =   -3716.28487887 Ry
     estimated scf accuracy    <       0.00001632 Ry

     total magnetization       =    37.15 Bohr mag/cell
     absolute magnetization    =    39.38 Bohr mag/cell

     iteration #  8     ecut=    45.00 Ry     beta= 0.10
     Davidson diagonalization with overlap
     ethr =  1.78E-09,  avg # of iterations =  2.1

     negative rho (up, down):  0.000E+00 4.274E-03

     total cpu time spent up to now is      567.3 secs

     total energy              =   -3716.28489204 Ry
     estimated scf accuracy    <       0.00000327 Ry

     total magnetization       =    37.15 Bohr mag/cell
     absolute magnetization    =    39.38 Bohr mag/cell

     iteration #  9     ecut=    45.00 Ry     beta= 0.10
     Davidson diagonalization with overlap
     ethr =  1.36E-09,  avg # of iterations =  2.1

     negative rho (up, down):  0.000E+00 4.264E-03

     total cpu time spent up to now is      584.1 secs

     total energy              =   -3716.28490022 Ry
     estimated scf accuracy    <       0.00000187 Ry

     total magnetization       =    37.14 Bohr mag/cell
     absolute magnetization    =    39.38 Bohr mag/cell

     iteration # 10     ecut=    45.00 Ry     beta= 0.10
     Davidson diagonalization with overlap
     ethr =  7.81E-10,  avg # of iterations =  3.1

     negative rho (up, down):  0.000E+00 4.238E-03

     Magnetic moment per site  (integrated on atomic sphere of radius R)
     atom   1 (R=0.179)  charge= 14.4410  magn=  2.3076
     atom   2 (R=0.179)  charge= 14.4410  magn=  2.3076
     atom   3 (R=0.179)  charge= 14.4176  magn=  2.5314
     atom   4 (R=0.179)  charge= 14.4410  magn=  2.3076
     atom   5 (R=0.179)  charge= 14.4176  magn=  2.5314
     atom   6 (R=0.179)  charge= 14.4176  magn=  2.5314
     atom   7 (R=0.179)  charge= 14.4115  magn=  2.6756
     atom   8 (R=0.179)  charge= 14.3793  magn=  2.6051
     atom   9 (R=0.179)  charge= 14.3793  magn=  2.6051
     atom  10 (R=0.179)  charge= 14.3793  magn=  2.6051
     atom  11 (R=0.179)  charge= 14.3793  magn=  2.6051
     atom  12 (R=0.179)  charge= 14.3793  magn=  2.6051
     atom  13 (R=0.179)  charge= 14.3793  magn=  2.6051
     atom  14 (R=0.179)  charge= 14.3793  magn=  2.6051
     atom  15 (R=0.179)  charge= 14.3793  magn=  2.6051

     total cpu time spent up to now is      602.9 secs

     End of self-consistent calculation

 ------ SPIN UP ------------


          k = 0.0000 0.0000 0.0000 (  6451 PWs)   bands (ev):

   -72.1590 -72.1218 -72.1218 -72.1218 -72.1172 -72.1170 -72.1170 -72.1170
   -72.1131 -72.0743 -72.0743 -72.0567 -71.7351 -71.7351 -71.7318 -38.3058
   -38.3058 -38.3058 -38.2448 -38.2286 -38.2286 -38.2286 -38.2064 -38.2064
   -38.2064 -38.1738 -38.1738 -38.1738 -38.1722 -38.1074 -38.1074 -38.0783
   -38.0783 -38.0783 -38.0759 -38.0759 -38.0759 -38.0494 -38.0494 -38.0494
   -38.0469 -38.0469 -38.0469 -38.0332 -38.0332 -37.9877 -37.9877 -37.9877
   -37.9661 -37.9661 -37.9661 -37.7302 -37.7302 -37.7302 -37.6936 -37.6936
   -37.6936 -37.6935 -37.6935 -37.6935   8.1482  11.3905  11.4835  11.4835
    11.5630  11.5630  11.5987  11.5987  11.5987  11.7717  11.7717  11.7717
    12.1054  12.1054  12.5907  12.8579  12.8579  12.8579  12.9183  12.9183
    12.9183  12.9994  12.9994  12.9994  13.2545  13.2545  13.2545  13.3553
    13.5184  13.5184  13.5184  13.8711  13.8711  13.9217  13.9217  13.9217
    14.1573  14.1573  14.1573  14.2367  14.2367  14.2367  14.3531  14.3531
    14.3531  14.7621  14.7621  14.7621  14.7934  14.9516  14.9516  15.1255
    15.1255  15.1584  15.1681  15.1681  15.1681  15.2168  15.2168  15.2351
    15.2351  15.2351  15.2752  15.2752  15.3175  15.3175  15.3964  15.7208
    15.7208  15.7208  16.1690  16.1690  16.2852  16.2852  16.2852  16.2873
    16.2873  16.2873  16.4461  16.4461  16.4461  16.6922  16.6922  16.6922

          k = 0.0000 0.0000 0.2500 (  6495 PWs)   bands (ev):

   -72.1568 -72.1278 -72.1211 -72.1211 -72.1180 -72.1180 -72.1167 -72.1152
   -72.1135 -72.0744 -72.0713 -72.0580 -71.7352 -71.7348 -71.7321 -38.3080
   -38.3074 -38.3074 -38.2458 -38.2293 -38.2274 -38.2274 -38.2110 -38.2110
   -38.1969 -38.1828 -38.1634 -38.1634 -38.1586 -38.1301 -38.1209 -38.1136
   -38.1136 -38.0787 -38.0787 -38.0749 -38.0718 -38.0718 -38.0653 -38.0469
   -38.0459 -38.0416 -38.0311 -38.0129 -38.0129 -37.9896 -37.9810 -37.9810
   -37.9666 -37.9666 -37.9612 -37.7316 -37.7288 -37.7288 -37.7038 -37.7038
   -37.7002 -37.6995 -37.6990 -37.6990   8.4462  10.6109  11.5125  11.5542
    11.6381  11.6509  11.6509  11.6792  11.7687  11.8529  11.8529  11.8792
    12.1646  12.2327  12.5842  12.7724  12.7842  12.7955  12.7955  12.8754
    12.9605  12.9605  13.0305  13.1536  13.1536  13.2583  13.2583  13.3763
    13.3978  13.6758  13.6758  13.8164  13.8311  13.8311  13.9017  13.9276
    13.9480  13.9480  14.1102  14.1886  14.1886  14.3834  14.4469  14.5490
    14.6051  14.6051  14.6626  14.6626  14.7065  14.7236  14.9042  14.9042
    14.9344  15.0036  15.0875  15.1435  15.1550  15.2152  15.2270  15.2278
    15.2278  15.2392  15.2472  15.2842  15.3128  15.3447  15.3447  15.3708
    15.4507  15.6205  15.7084  15.7327  15.7327  16.1812  16.1817  16.1817
    16.2462  16.2883  16.4095  16.4095  16.5808  16.7312  16.9329  16.9329

          k = 0.0000 0.0000-0.5000 (  6480 PWs)   bands (ev):

   -72.1534 -72.1333 -72.1197 -72.1197 -72.1194 -72.1194 -72.1152 -72.1149
   -72.1143 -72.0744 -72.0672 -72.0607 -71.7352 -71.7340 -71.7328 -38.2993
   -38.2984 -38.2984 -38.2538 -38.2257 -38.2257 -38.2127 -38.1909 -38.1906
   -38.1887 -38.1887 -38.1785 -38.1785 -38.1568 -38.1443 -38.1435 -38.1368
   -38.1368 -38.0908 -38.0908 -38.0733 -38.0696 -38.0696 -38.0570 -38.0560
   -38.0463 -38.0461 -38.0198 -37.9976 -37.9976 -37.9920 -37.9745 -37.9745
   -37.9603 -37.9603 -37.9532 -37.7311 -37.7202 -37.7202 -37.7142 -37.7142
   -37.7031 -37.6991 -37.6991 -37.6983   9.1613   9.5258  11.6172  11.6559
    11.7668  11.7668  11.8574  11.8663  11.8663  11.9795  11.9897  12.0624
    12.1228  12.2163  12.3533  12.4903  12.5406  12.7596  12.7596  12.7725
    13.0243  13.0243  13.3055  13.3164  13.3199  13.3199  13.4531  13.5053
    13.5053  13.6440  13.6440  13.6653  13.7296  13.7296  13.8109  13.8889
    13.8889  13.9035  13.9220  14.0282  14.0282  14.1867  14.3343  14.3343
    14.5239  14.5243  14.5243  14.5257  14.6502  14.6743  14.8176  14.8450
    14.8450  14.8791  14.9043  15.1603  15.1603  15.1993  15.2081  15.2117
    15.2291  15.2323  15.3082  15.3131  15.3149  15.3149  15.3193  15.3905
    15.6850  15.7606  15.7606  15.8415  15.8637  15.8646  15.8646  15.9381
    16.0034  16.3890  16.5462  16.5462  16.6348  16.7950  16.8085  16.8349

          k = 0.0000 0.2500 0.2500 (  6500 PWs)   bands (ev):

   -72.1544 -72.1273 -72.1263 -72.1204 -72.1195 -72.1173 -72.1173 -72.1141
   -72.1126 -72.0725 -72.0704 -72.0596 -71.7350 -71.7347 -71.7325 -38.3038
   -38.3014 -38.3006 -38.2501 -38.2288 -38.2229 -38.2174 -38.2113 -38.2038
   -38.1984 -38.1886 -38.1773 -38.1609 -38.1565 -38.1503 -38.1380 -38.1255
   -38.1006 -38.0791 -38.0768 -38.0722 -38.0712 -38.0711 -38.0681 -38.0555
   -38.0516 -38.0482 -38.0320 -38.0108 -37.9970 -37.9844 -37.9843 -37.9708
   -37.9674 -37.9657 -37.9654 -37.7303 -37.7244 -37.7238 -37.7072 -37.7070
   -37.7041 -37.7014 -37.7000 -37.6943   8.7447  10.7144  10.8753  11.4934
    11.6991  11.7625  11.8026  11.8299  11.8652  11.9475  11.9844  12.0089
    12.2890  12.3115  12.6277  12.6742  12.6955  12.7993  12.8949  12.9237
    12.9716  12.9868  13.0001  13.0823  13.0900  13.1168  13.2743  13.4315
    13.4475  13.5352  13.6316  13.6925  13.7915  13.7917  13.8108  13.8267
    13.8714  14.0264  14.0672  14.1783  14.2294  14.3722  14.4594  14.4802
    14.5018  14.5083  14.5237  14.6000  14.6020  14.7137  14.7400  14.7818
    14.7886  14.9325  14.9489  15.0536  15.0623  15.0991  15.1549  15.1953
    15.2180  15.2194  15.2354  15.2574  15.2809  15.3834  15.4351  15.4691
    15.5007  15.5302  15.5701  15.6227  15.6602  15.6721  15.6927  15.8000
    15.8962  15.9256  16.3196  16.6698  16.7014  17.7007  17.7915  17.9702

          k = 0.0000 0.2500-0.5000 (  6452 PWs)   bands (ev):

   -72.1513 -72.1321 -72.1252 -72.1210 -72.1190 -72.1188 -72.1157 -72.1154
   -72.1115 -72.0718 -72.0670 -72.0623 -71.7348 -71.7340 -71.7331 -38.2941
   -38.2933 -38.2909 -38.2548 -38.2355 -38.2180 -38.2070 -38.1990 -38.1921
   -38.1879 -38.1817 -38.1781 -38.1770 -38.1723 -38.1517 -38.1395 -38.1372
   -38.1035 -38.0857 -38.0855 -38.0661 -38.0658 -38.0649 -38.0599 -38.0573
   -38.0549 -38.0508 -38.0138 -38.0064 -37.9909 -37.9834 -37.9791 -37.9709
   -37.9687 -37.9623 -37.9603 -37.7251 -37.7150 -37.7148 -37.7117 -37.7109
   -37.7057 -37.6989 -37.6988 -37.6937   9.4358   9.7712  11.0920  11.3499
    11.8424  11.9812  12.0520  12.0553  12.0570  12.0922  12.1296  12.1684
    12.2321  12.3041  12.4265  12.5112  12.6123  12.7810  12.8517  12.8617
    12.9964  13.0685  13.1339  13.1516  13.2328  13.2804  13.3058  13.3678
    13.4598  13.5180  13.6194  13.6248  13.6443  13.7270  13.7347  13.7823
    13.7978  13.8630  13.8789  13.9617  14.0496  14.1247  14.1416  14.2160
    14.3163  14.4122  14.5570  14.6081  14.6735  14.7141  14.7972  14.8480
    14.8795  14.8985  14.8986  14.9335  15.0240  15.0348  15.1095  15.1626
    15.1662  15.2044  15.2307  15.2758  15.2905  15.3330  15.3370  15.3636
    15.4124  15.4408  15.4934  15.5662  15.5781  15.6040  15.6318  15.8394
    15.8930  16.1804  16.1961  17.1721  17.2228  17.2654  17.3791  18.8608

          k = 0.0000-0.5000-0.5000 (  6496 PWs)   bands (ev):

   -72.1485 -72.1302 -72.1302 -72.1231 -72.1176 -72.1173 -72.1173 -72.1171
   -72.1103 -72.0669 -72.0669 -72.0664 -71.7340 -71.7340 -71.7340 -38.2922
   -38.2847 -38.2847 -38.2588 -38.2511 -38.2087 -38.2087 -38.2068 -38.1977
   -38.1941 -38.1897 -38.1897 -38.1752 -38.1752 -38.1480 -38.1406 -38.1317
   -38.0806 -38.0806 -38.0759 -38.0695 -38.0695 -38.0685 -38.0667 -38.0615
   -38.0615 -38.0613 -38.0231 -38.0021 -37.9917 -37.9917 -37.9879 -37.9800
   -37.9718 -37.9672 -37.9672 -37.7198 -37.7134 -37.7134 -37.7115 -37.7115
   -37.7104 -37.7037 -37.7034 -37.6926  10.1402  10.2256  10.2256  10.8072
    12.1046  12.1348  12.1348  12.2355  12.2672  12.3083  12.3083  12.3708
    12.4174  12.4174  12.5842  12.6487  12.6685  12.6685  12.7886  12.8151
    12.9099  12.9353  12.9772  13.0266  13.0266  13.1444  13.1444  13.4280
    13.4286  13.4668  13.4807  13.4807  13.6368  13.6688  13.6688  13.7089
    13.7248  13.7248  13.7855  13.8095  13.8608  13.8608  14.0664  14.1623
    14.2372  14.3504  14.5104  14.5104  14.7543  14.7936  14.8219  14.8219
    14.9213  14.9213  14.9577  14.9819  15.0021  15.0021  15.0031  15.0233
    15.0333  15.0333  15.0594  15.1036  15.1970  15.2333  15.2333  15.2902
    15.3037  15.3037  15.3374  15.4147  15.4456  15.5381  15.5381  15.9034
    15.9034  16.2896  16.2965  17.9269  18.0731  18.0731  18.2764  18.3562

          k = 0.2500 0.2500 0.2500 (  6493 PWs)   bands (ev):

   -72.1522 -72.1267 -72.1252 -72.1252 -72.1193 -72.1184 -72.1184 -72.1151
   -72.1096 -72.0703 -72.0703 -72.0611 -71.7346 -71.7346 -71.7329 -38.2972
   -38.2939 -38.2939 -38.2521 -38.2249 -38.2180 -38.2180 -38.2113 -38.1928
   -38.1928 -38.1912 -38.1750 -38.1750 -38.1607 -38.1607 -38.1487 -38.1093
   -38.0927 -38.0927 -38.0831 -38.0831 -38.0683 -38.0683 -38.0676 -38.0674
   -38.0551 -38.0551 -38.0255 -37.9969 -37.9969 -37.9880 -37.9747 -37.9747
   -37.9664 -37.9664 -37.9627 -37.7287 -37.7208 -37.7208 -37.7106 -37.7065
   -37.7065 -37.7028 -37.6964 -37.6964   9.0362  10.9300  10.9300  11.1386
    11.6730  11.6730  11.8168  11.9777  11.9777  12.0738  12.1320  12.1320
    12.4564  12.4564  12.6307  12.6710  12.6907  12.8524  12.8524  12.9409
    12.9409  12.9951  13.0222  13.0782  13.0782  13.2072  13.2072  13.3363
    13.4554  13.4554  13.4656  13.6235  13.6235  13.6792  13.6792  13.7784
    13.7784  13.8669  13.8674  14.0680  14.0680  14.1372  14.2933  14.2933
    14.3631  14.3631  14.4888  14.6260  14.6602  14.6814  14.6814  14.8959
    14.9403  14.9403  14.9837  15.0520  15.0592  15.0592  15.1401  15.1401
    15.1995  15.2039  15.2039  15.2278  15.2278  15.2664  15.2990  15.2990
    15.4785  15.4913  15.4913  15.6772  15.6772  15.7006  15.8059  15.8059
    15.9539  15.9539  15.9749  16.7131  16.7131  16.8020  18.6539  18.6539

          k = 0.2500 0.2500-0.5000 (  6456 PWs)   bands (ev):

   -72.1493 -72.1307 -72.1248 -72.1235 -72.1205 -72.1201 -72.1171 -72.1166
   -72.1080 -72.0701 -72.0669 -72.0635 -71.7346 -71.7340 -71.7334 -38.2879
   -38.2877 -38.2863 -38.2529 -38.2316 -38.2255 -38.2051 -38.1992 -38.1981
   -38.1881 -38.1791 -38.1763 -38.1677 -38.1665 -38.1573 -38.1531 -38.1075
   -38.1019 -38.0982 -38.0820 -38.0746 -38.0724 -38.0713 -38.0628 -38.0627
   -38.0619 -38.0615 -38.0154 -38.0062 -37.9859 -37.9767 -37.9752 -37.9735
   -37.9707 -37.9627 -37.9598 -37.7241 -37.7182 -37.7149 -37.7113 -37.7090
   -37.7072 -37.7023 -37.6972 -37.6940   9.7127  10.0244  11.3158  11.3473
    11.4651  11.7044  12.1759  12.2226  12.2374  12.2476  12.2828  12.2881
    12.3032  12.4268  12.4681  12.5815  12.7139  12.8336  12.8489  12.9504
    13.0210  13.0329  13.0519  13.1367  13.1617  13.2389  13.2415  13.2684
    13.3501  13.3874  13.5342  13.5402  13.5648  13.5678  13.5979  13.6158
    13.6306  13.6341  13.6363  13.6724  13.8439  13.9767  13.9890  14.0792
    14.1223  14.3269  14.4783  14.5086  14.7789  14.8505  14.8572  14.8917
    14.8975  14.8983  14.9039  14.9521  15.0234  15.0777  15.1334  15.1632
    15.1735  15.1926  15.2130  15.2843  15.2881  15.3129  15.3363  15.3380
    15.3458  15.4978  15.5301  15.5485  15.6331  15.8029  15.9390  15.9516
    15.9735  16.0057  16.0367  16.1373  16.1561  17.8155  18.1135  19.3663

          k = 0.2500-0.5000-0.5000 (  6472 PWs)   bands (ev):

   -72.1468 -72.1289 -72.1289 -72.1227 -72.1223 -72.1187 -72.1187 -72.1183
   -72.1062 -72.0667 -72.0667 -72.0664 -71.7340 -71.7340 -71.7340 -38.2831
   -38.2787 -38.2787 -38.2513 -38.2396 -38.2132 -38.2132 -38.2092 -38.1891
   -38.1851 -38.1833 -38.1833 -38.1653 -38.1590 -38.1590 -38.1449 -38.1058
   -38.0894 -38.0894 -38.0885 -38.0849 -38.0843 -38.0816 -38.0816 -38.0640
   -38.0605 -38.0605 -38.0315 -37.9923 -37.9879 -37.9879 -37.9755 -37.9687
   -37.9672 -37.9622 -37.9622 -37.7206 -37.7184 -37.7184 -37.7166 -37.7079
   -37.7079 -37.7063 -37.6975 -37.6952  10.4014  10.4962  10.4962  11.0138
    11.8066  11.9868  11.9868  12.3145  12.3403  12.3403  12.3756  12.5984
    12.6314  12.6462  12.6462  12.7240  12.7240  12.8191  12.8231  12.8279
    12.8666  12.9984  12.9984  13.0167  13.0420  13.0950  13.0950  13.2576
    13.2868  13.2868  13.2946  13.3545  13.3563  13.4398  13.4398  13.4853
    13.4853  13.5038  13.5495  13.6347  13.6347  13.7027  13.7562  13.7884
    13.9493  14.3461  14.3461  14.3803  14.9046  14.9669  14.9669  14.9951
    15.0309  15.0309  15.0677  15.0887  15.0891  15.1644  15.1644  15.1707
    15.2111  15.2156  15.2274  15.2274  15.2502  15.2634  15.2634  15.3677
    15.3677  15.3969  15.4200  15.5300  15.5308  15.5506  15.5506  15.7974
    15.7974  16.0226  16.0367  16.7848  16.9007  16.9007  17.1183  20.3081

          k =-0.5000-0.5000-0.5000 (  6488 PWs)   bands (ev):

   -72.1447 -72.1272 -72.1272 -72.1272 -72.1207 -72.1207 -72.1207 -72.1199
   -72.1037 -72.0664 -72.0664 -72.0664 -71.7339 -71.7339 -71.7339 -38.2710
   -38.2710 -38.2710 -38.2509 -38.2241 -38.2185 -38.2185 -38.2185 -38.1763
   -38.1763 -38.1716 -38.1716 -38.1716 -38.1461 -38.1461 -38.1461 -38.1030
   -38.1030 -38.1030 -38.1007 -38.1007 -38.0997 -38.0997 -38.0997 -38.0584
   -38.0584 -38.0584 -38.0398 -37.9815 -37.9815 -37.9815 -37.9703 -37.9703
   -37.9641 -37.9641 -37.9641 -37.7203 -37.7203 -37.7203 -37.7183 -37.7106
   -37.7106 -37.7106 -37.6993 -37.6993  11.0345  11.1270  11.1270  11.1270
    11.3154  11.3154  11.3154  12.2938  12.7335  12.7335  12.7400  12.7400
    12.7400  12.7429  12.7429  12.7429  12.8386  12.8386  12.8386  12.9499
    12.9499  12.9499  13.0477  13.0477  13.1128  13.1128  13.1128  13.1529
    13.1529  13.1529  13.1680  13.1680  13.1680  13.2201  13.2420  13.2420
    13.2668  13.2668  13.2668  13.2785  13.2785  13.2785  13.3318  13.7937
    13.7937  14.2956  14.2956  14.2956  15.0226  15.0226  15.0509  15.0509
    15.0509  15.0536  15.0536  15.0536  15.1692  15.1692  15.1692  15.1885
    15.1885  15.1885  15.3772  15.3772  15.4733  15.4733  15.4733  15.5132
    15.5132  15.5132  15.6122  15.6122  15.6207  15.6207  15.6207  15.8778
    15.8778  15.8778  16.0987  16.1578  16.1943  16.1943  16.1943  22.6882

 ------ SPIN DOWN ----------


          k = 0.0000 0.0000 0.0000 (  6451 PWs)   bands (ev):

   -68.9310 -68.8928 -68.8928 -68.8612 -68.8612 -68.8612 -68.8602 -68.8560
   -68.8560 -68.8560 -68.8512 -68.8298 -68.8298 -68.8042 -68.7668 -35.2060
   -35.2060 -35.2060 -35.1568 -35.1568 -35.1568 -35.0617 -35.0617 -35.0617
   -35.0254 -35.0254 -35.0037 -35.0037 -35.0037 -35.0019 -35.0019 -35.0019
   -34.9699 -34.9627 -34.9627 -34.9627 -34.9537 -34.9537 -34.9537 -34.9437
   -34.9437 -34.9437 -34.9392 -34.9392 -34.9095 -34.9095 -34.9095 -34.8987
   -34.8987 -34.8987 -34.8856 -34.7838 -34.7838 -34.7838 -34.7835 -34.7835
   -34.7835 -34.7696 -34.7696 -34.7696   8.3028  12.2980  12.2980  12.4178
    12.4178  12.4178  12.5343  13.0480  13.0480  13.0940  13.0940  13.0940
    13.8500  13.8500  13.8795  14.7806  14.7806  14.7806  14.8070  14.8070
    14.8070  14.9951  14.9951  14.9951  15.5115  15.5115  15.5115  15.7157
    15.7330  15.7330  15.7330  16.3636  16.3636  16.3780  16.3780  16.3780
    16.5177  16.5177  16.5177  16.5590  16.5590  16.5590  16.6720  16.6720
    16.6720  16.7901  16.7901  16.7901  17.2320  17.2320  17.2320  17.4977
    17.4977  17.5486  17.5486  17.5486  17.7926  17.9659  17.9659  17.9659
    18.1095  18.1095  18.1529  18.2448  18.2448  18.3897  18.3897  18.3915
    18.3915  18.3915  18.4219  18.4219  18.4282  18.6731  18.6731  18.6731
    18.8420  18.8420  19.0106  19.0106  19.0106  19.0169  19.0169  19.0169

          k = 0.0000 0.0000 0.2500 (  6495 PWs)   bands (ev):

   -68.9267 -68.8994 -68.8928 -68.8658 -68.8604 -68.8604 -68.8569 -68.8569
   -68.8567 -68.8554 -68.8519 -68.8299 -68.8244 -68.8057 -68.7673 -35.1995
   -35.1995 -35.1989 -35.1493 -35.1493 -35.1490 -35.0799 -35.0799 -35.0732
   -35.0711 -35.0508 -35.0475 -35.0475 -35.0196 -35.0196 -35.0001 -34.9832
   -34.9687 -34.9687 -34.9544 -34.9534 -34.9530 -34.9475 -34.9236 -34.9236
   -34.9207 -34.9207 -34.9153 -34.9073 -34.9010 -34.8960 -34.8948 -34.8948
   -34.8947 -34.8724 -34.8724 -34.8135 -34.8040 -34.8040 -34.8020 -34.8018
   -34.8018 -34.7812 -34.7812 -34.7800   8.6052  10.8936  12.4534  12.5835
    12.5835  12.6028  13.0549  13.0652  13.0652  13.1133  13.2911  13.4291
    13.9035  13.9840  14.0199  14.5516  14.5628  14.7584  14.7584  14.9841
    14.9841  15.0770  15.0770  15.0870  15.1275  15.4194  15.4194  15.5210
    15.6446  15.7114  15.7114  16.1232  16.1254  16.1322  16.1334  16.1334
    16.2120  16.2120  16.3049  16.3049  16.3109  16.5295  16.5295  16.6781
    16.7506  16.8384  16.9100  16.9100  17.0741  17.1130  17.1130  17.3371
    17.5871  17.5871  17.6479  17.9274  17.9341  17.9477  17.9477  17.9901
    18.0164  18.0911  18.1390  18.1518  18.3092  18.3380  18.3756  18.3977
    18.4184  18.4840  18.4840  18.5612  18.6718  18.6759  18.7729  18.7729
    18.8013  18.8934  18.8959  18.8959  18.9007  18.9919  19.0457  19.0457

          k = 0.0000 0.0000-0.5000 (  6480 PWs)   bands (ev):

   -68.9179 -68.9104 -68.8927 -68.8673 -68.8588 -68.8588 -68.8585 -68.8585
   -68.8558 -68.8538 -68.8535 -68.8300 -68.8181 -68.8086 -68.7680 -35.1540
   -35.1499 -35.1499 -35.1497 -35.1497 -35.1328 -35.1229 -35.1229 -35.1175
   -35.1064 -35.0758 -35.0758 -35.0658 -35.0211 -35.0211 -35.0086 -34.9884
   -34.9884 -34.9685 -34.9673 -34.9526 -34.9523 -34.9461 -34.9259 -34.9259
   -34.9041 -34.9033 -34.8871 -34.8749 -34.8749 -34.8682 -34.8639 -34.8639
   -34.8605 -34.8505 -34.8379 -34.8379 -34.8350 -34.8350 -34.8226 -34.8201
   -34.8201 -34.7870 -34.7870 -34.7852   9.3357   9.7099  12.6612  12.7390
    12.8812  12.8812  12.9351  12.9351  13.0429  13.3256  13.6841  13.7077
    13.9248  14.1303  14.1436  14.1637  14.2432  14.7539  14.7855  14.7855
    14.9691  14.9691  15.4553  15.4553  15.5084  15.5084  15.5124  15.5127
    15.5159  15.5159  15.5244  15.5262  15.5901  15.6103  15.6103  15.9377
    15.9377  15.9824  16.0540  16.0540  16.2008  16.3190  16.3190  16.3870
    16.6762  16.9846  16.9846  17.4092  17.4556  17.5278  17.5278  17.5340
    17.5764  17.6507  17.6884  17.6884  17.7761  17.8999  17.8999  17.9683
    18.2227  18.2502  18.2835  18.3334  18.3334  18.3683  18.3797  18.3850
    18.3960  18.4267  18.4971  18.5137  18.5545  18.5824  18.6209  18.6209
    18.7444  18.7615  18.8857  18.9588  18.9588  19.0009  19.0992  19.1008

          k = 0.0000 0.2500 0.2500 (  6500 PWs)   bands (ev):

   -68.9227 -68.9005 -68.8963 -68.8685 -68.8607 -68.8597 -68.8582 -68.8562
   -68.8561 -68.8549 -68.8526 -68.8264 -68.8226 -68.8075 -68.7678 -35.1938
   -35.1850 -35.1766 -35.1468 -35.1382 -35.1283 -35.1140 -35.1075 -35.0984
   -35.0835 -35.0535 -35.0523 -35.0329 -35.0211 -35.0001 -34.9952 -34.9919
   -34.9824 -34.9728 -34.9722 -34.9600 -34.9596 -34.9513 -34.9425 -34.9374
   -34.9349 -34.9248 -34.9063 -34.9006 -34.8961 -34.8901 -34.8815 -34.8774
   -34.8556 -34.8528 -34.8460 -34.8333 -34.8217 -34.8123 -34.8086 -34.8055
   -34.7873 -34.7837 -34.7826 -34.7808   8.9080  11.0245  11.2341  12.5242
    12.7153  12.7671  13.2155  13.2720  13.3019  13.4260  13.4936  13.6057
    14.0024  14.0405  14.1646  14.4809  14.5054  14.8243  14.8257  14.9195
    14.9483  15.0173  15.0428  15.0764  15.1516  15.1577  15.2680  15.5578
    15.5912  15.5952  15.6610  15.7704  15.8267  15.8657  15.9297  15.9343
    15.9659  16.1046  16.2116  16.2423  16.3033  16.3242  16.3658  16.5073
    16.7318  16.8382  16.8808  17.1250  17.1352  17.2840  17.3192  17.3301
    17.4007  17.5667  17.6217  17.8936  17.9102  17.9731  18.0104  18.0455
    18.0604  18.1747  18.1991  18.2358  18.2605  18.2626  18.3088  18.3245
    18.3787  18.3832  18.4311  18.4425  18.4772  18.5182  18.5342  18.5970
    18.6442  18.7664  19.0323  19.0686  19.1649  19.6084  19.6914  19.8364

          k = 0.0000 0.2500-0.5000 (  6452 PWs)   bands (ev):

   -68.9146 -68.9088 -68.8969 -68.8704 -68.8599 -68.8599 -68.8581 -68.8578
   -68.8545 -68.8542 -68.8541 -68.8252 -68.8172 -68.8108 -68.7682 -35.1615
   -35.1566 -35.1446 -35.1444 -35.1369 -35.1364 -35.1297 -35.1250 -35.1199
   -35.0708 -35.0703 -35.0607 -35.0340 -35.0304 -35.0190 -35.0009 -34.9853
   -34.9844 -34.9711 -34.9695 -34.9669 -34.9498 -34.9459 -34.9436 -34.9283
   -34.9275 -34.9216 -34.9064 -34.9000 -34.8961 -34.8879 -34.8680 -34.8596
   -34.8333 -34.8333 -34.8317 -34.8304 -34.8291 -34.8185 -34.8179 -34.8026
   -34.7990 -34.7848 -34.7836 -34.7818   9.6219   9.9730  11.5997  11.9736
    12.9350  13.0858  13.1733  13.3561  13.6566  13.7191  13.7696  13.7874
    13.9903  14.1068  14.2028  14.2337  14.3457  14.7439  14.8577  14.8846
    14.9264  15.0031  15.0639  15.1910  15.2163  15.2792  15.3120  15.3298
    15.4291  15.5168  15.5173  15.5497  15.5652  15.6970  15.6977  15.7313
    15.8278  15.9286  15.9680  16.0612  16.0757  16.1271  16.1884  16.5762
    16.6187  16.9153  17.1699  17.3291  17.3732  17.4294  17.4304  17.4971
    17.5864  17.6176  17.6436  17.6466  17.6770  17.7934  17.8686  17.9601
    18.0212  18.1413  18.1599  18.1776  18.2884  18.2950  18.3344  18.3523
    18.3811  18.4324  18.4349  18.4384  18.4490  18.4624  18.4773  18.7007
    18.7301  18.8530  18.8915  19.3843  19.4086  19.4522  19.5287  20.4681

          k = 0.0000-0.5000-0.5000 (  6496 PWs)   bands (ev):

   -68.9069 -68.9069 -68.9056 -68.8739 -68.8605 -68.8605 -68.8564 -68.8562
   -68.8562 -68.8559 -68.8532 -68.8175 -68.8164 -68.8164 -68.7684 -35.1545
   -35.1536 -35.1494 -35.1494 -35.1425 -35.1425 -35.1338 -35.1323 -35.1187
   -35.0647 -35.0353 -35.0353 -35.0181 -35.0181 -34.9970 -34.9970 -34.9944
   -34.9860 -34.9800 -34.9778 -34.9773 -34.9656 -34.9610 -34.9610 -34.9592
   -34.9426 -34.9426 -34.9415 -34.9290 -34.9153 -34.8707 -34.8645 -34.8645
   -34.8300 -34.8300 -34.8274 -34.8274 -34.8241 -34.8191 -34.8147 -34.7916
   -34.7859 -34.7845 -34.7827 -34.7827  10.3814  10.4908  10.4908  11.1412
    13.4069  13.4103  13.5348  13.5348  13.6677  13.6677  13.7888  14.0304
    14.0304  14.0512  14.3968  14.4403  14.5707  14.5707  14.6750  14.7640
    14.8234  14.8662  14.9266  15.0848  15.0848  15.1121  15.1121  15.3318
    15.3642  15.3959  15.3959  15.4398  15.4398  15.5967  15.5987  15.6566
    15.7287  15.8168  16.0178  16.0178  16.0723  16.1601  16.1601  16.5365
    16.6951  16.8178  17.0095  17.0095  17.2732  17.2732  17.3718  17.6391
    17.6521  17.6721  17.7505  17.7505  17.8148  17.8148  17.8350  17.8536
    17.8870  17.9540  17.9540  18.1082  18.1477  18.2157  18.2366  18.2366
    18.3172  18.3172  18.3282  18.4223  18.4223  18.4241  18.4301  18.7918
    18.7918  18.9912  18.9983  19.8781  20.1396  20.1396  20.2753  20.3181

          k = 0.2500 0.2500 0.2500 (  6493 PWs)   bands (ev):

   -68.9191 -68.8998 -68.8998 -68.8696 -68.8640 -68.8640 -68.8580 -68.8554
   -68.8536 -68.8536 -68.8516 -68.8225 -68.8225 -68.8091 -68.7680 -35.1801
   -35.1639 -35.1639 -35.1338 -35.1338 -35.1220 -35.1212 -35.1212 -35.1136
   -35.0553 -35.0553 -35.0508 -35.0508 -35.0241 -35.0187 -35.0187 -35.0132
   -35.0044 -34.9868 -34.9751 -34.9751 -34.9468 -34.9468 -34.9223 -34.9163
   -34.9163 -34.9091 -34.9091 -34.9018 -34.8960 -34.8960 -34.8947 -34.8878
   -34.8457 -34.8354 -34.8339 -34.8339 -34.8190 -34.8190 -34.8075 -34.7989
   -34.7989 -34.7846 -34.7843 -34.7843   9.2049  11.2731  11.2731  11.5700
    12.7011  12.7011  12.9528  13.6522  13.6567  13.6567  13.7637  13.7637
    14.1579  14.1579  14.1985  14.3380  14.5468  14.7763  14.8317  14.8317
    14.9572  14.9572  15.0729  15.0960  15.0960  15.1997  15.1997  15.4929
    15.5000  15.5488  15.5488  15.5905  15.5905  15.6676  15.7765  15.7765
    15.8957  15.8957  15.8992  16.0887  16.0887  16.1986  16.1986  16.3958
    16.6579  16.9018  16.9018  17.2464  17.3284  17.3444  17.5142  17.5142
    17.5863  17.5863  17.6257  17.8264  17.8264  17.9339  18.0098  18.0176
    18.0176  18.1599  18.1599  18.2628  18.2628  18.2745  18.3293  18.3293
    18.3388  18.3826  18.3826  18.4817  18.4817  18.5688  18.5688  18.5906
    18.6598  18.6598  18.6654  19.0660  19.0660  19.1255  20.3904  20.3904

          k = 0.2500 0.2500-0.5000 (  6456 PWs)   bands (ev):

   -68.9119 -68.9073 -68.8990 -68.8706 -68.8663 -68.8653 -68.8586 -68.8566
   -68.8522 -68.8521 -68.8508 -68.8224 -68.8169 -68.8124 -68.7683 -35.1561
   -35.1526 -35.1436 -35.1429 -35.1290 -35.1274 -35.1203 -35.1191 -35.0884
   -35.0766 -35.0725 -35.0541 -35.0380 -35.0363 -35.0324 -35.0162 -35.0087
   -34.9994 -34.9941 -34.9777 -34.9731 -34.9606 -34.9536 -34.9416 -34.9187
   -34.9140 -34.9001 -34.8975 -34.8966 -34.8931 -34.8794 -34.8715 -34.8634
   -34.8511 -34.8440 -34.8311 -34.8281 -34.8249 -34.8123 -34.8079 -34.8057
   -34.7985 -34.7857 -34.7855 -34.7843   9.9078  10.2391  11.8166  11.8874
    12.0549  12.3837  13.2762  13.7170  13.8600  13.8702  13.9759  14.0331
    14.0627  14.1753  14.2664  14.3815  14.5138  14.7786  14.8961  14.9122
    14.9456  14.9484  15.0335  15.0518  15.0963  15.1475  15.2019  15.2177
    15.3551  15.4478  15.4531  15.4859  15.5245  15.5505  15.6560  15.6748
    15.6751  15.7469  15.8648  15.8771  15.9108  16.0052  16.0228  16.3857
    16.5372  16.9839  17.0014  17.0693  17.4500  17.4841  17.5569  17.5826
    17.7407  17.7507  17.7528  17.7966  17.8423  17.9260  17.9266  18.0569
    18.1103  18.1550  18.1700  18.2368  18.2518  18.2536  18.3442  18.3470
    18.3573  18.3783  18.3797  18.4378  18.4556  18.4750  18.5767  18.6062
    18.6091  18.6236  18.6433  18.7188  18.7585  19.9131  20.1761  20.9744

          k = 0.2500-0.5000-0.5000 (  6472 PWs)   bands (ev):

   -68.9055 -68.9055 -68.9048 -68.8730 -68.8676 -68.8676 -68.8607 -68.8576
   -68.8502 -68.8502 -68.8492 -68.8171 -68.8166 -68.8166 -68.7684 -35.1393
   -35.1381 -35.1376 -35.1376 -35.1224 -35.1220 -35.1220 -35.1178 -35.0980
   -35.0658 -35.0485 -35.0485 -35.0379 -35.0354 -35.0284 -35.0284 -35.0256
   -35.0256 -35.0225 -34.9988 -34.9973 -34.9493 -34.9493 -34.9417 -34.9061
   -34.9061 -34.9049 -34.9033 -34.9025 -34.8943 -34.8671 -34.8671 -34.8659
   -34.8443 -34.8443 -34.8348 -34.8253 -34.8229 -34.8229 -34.8155 -34.8073
   -34.7994 -34.7878 -34.7878 -34.7863  10.6506  10.7679  10.7679  11.3508
    12.4218  12.6242  12.6242  13.3336  14.2078  14.2152  14.2152  14.2467
    14.3338  14.3338  14.4880  14.6303  14.6303  14.6666  14.7042  14.7049
    14.8641  14.9603  14.9603  15.0205  15.0452  15.1459  15.1459  15.2086
    15.2368  15.3231  15.3231  15.3875  15.3875  15.4747  15.4782  15.4934
    15.6545  15.7315  15.7315  15.8263  15.8263  15.8816  15.8992  15.9304
    16.2081  16.9803  16.9803  17.0499  17.7212  17.7212  17.7635  17.8224
    17.8831  17.8878  17.9071  17.9071  17.9127  17.9127  17.9561  17.9830
    17.9888  18.0327  18.0327  18.1303  18.1906  18.2065  18.2065  18.2088
    18.2614  18.3101  18.3101  18.3445  18.3745  18.3745  18.4225  18.6217
    18.6217  18.6469  18.6798  19.1732  19.2395  19.2395  19.4123  21.8505

          k =-0.5000-0.5000-0.5000 (  6488 PWs)   bands (ev):

   -68.9040 -68.9040 -68.9040 -68.8719 -68.8719 -68.8719 -68.8636 -68.8590
   -68.8472 -68.8472 -68.8472 -68.8168 -68.8168 -68.8168 -68.7683 -35.1087
   -35.1087 -35.1087 -35.1038 -35.1038 -35.0931 -35.0931 -35.0931 -35.0829
   -35.0829 -35.0829 -35.0768 -35.0768 -35.0678 -35.0678 -35.0678 -35.0644
   -35.0216 -35.0200 -35.0200 -35.0200 -34.9383 -34.9383 -34.9383 -34.8765
   -34.8765 -34.8765 -34.8702 -34.8702 -34.8702 -34.8677 -34.8677 -34.8597
   -34.8565 -34.8565 -34.8565 -34.8353 -34.8353 -34.8353 -34.8280 -34.8233
   -34.8233 -34.7928 -34.7928 -34.7928  11.3568  11.4352  11.4352  11.4352
    11.6681  11.6681  11.6681  12.8283  14.5933  14.5933  14.6021  14.6021
    14.6021  14.6701  14.6701  14.6701  14.6770  14.6770  14.6770  14.9612
    14.9612  14.9612  15.1459  15.1459  15.2053  15.2053  15.2053  15.2157
    15.2157  15.2157  15.2407  15.2407  15.2407  15.2449  15.2761  15.2761
    15.3078  15.3078  15.3078  15.5141  15.5141  15.5141  15.5203  15.9344
    15.9344  17.0018  17.0018  17.0018  18.0927  18.0927  18.0927  18.0965
    18.0965  18.1035  18.1035  18.1035  18.1078  18.1078  18.1078  18.1301
    18.1301  18.1484  18.1484  18.1484  18.1651  18.1651  18.1651  18.1838
    18.1838  18.1838  18.2034  18.2034  18.3538  18.3538  18.3538  18.4140
    18.4140  18.4140  18.6264  18.6655  18.6655  18.6655  18.7214  23.8486

     the Fermi energy is    16.2284 ev

!    total energy              =   -3716.28493654 Ry
     estimated scf accuracy    <       0.00000055 Ry
     smearing contrib. (-TS)   =       0.01521349 Ry
     internal energy E=F+TS    =   -3716.30015003 Ry

     The total energy is F=E-TS. E is the sum of the following terms:
     one-electron contribution =   -1893.30822488 Ry
     hartree contribution      =    1071.45335478 Ry
     xc contribution           =    -416.24745993 Ry
     ewald contribution        =   -2478.19782001 Ry

     total magnetization       =    37.14 Bohr mag/cell
     absolute magnetization    =    39.38 Bohr mag/cell

     convergence has been achieved in  10 iterations

     negative rho (up, down):  0.000E+00 4.238E-03

     Forces acting on atoms (cartesian axes, Ry/au):

     atom    1 type  1   force =     0.00000000    0.00000000    0.00000000
     atom    2 type  1   force =     0.00000000    0.00000000    0.00000000
     atom    3 type  1   force =     0.00000000    0.00000000    0.00000000
     atom    4 type  1   force =     0.00000000    0.00000000    0.00000000
     atom    5 type  1   force =     0.00000000    0.00000000    0.00000000
     atom    6 type  1   force =     0.00000000    0.00000000    0.00000000
     atom    7 type  1   force =     0.00000000    0.00000000    0.00000000
     atom    8 type  1   force =    -0.01069549   -0.01069549   -0.01069549
     atom    9 type  1   force =     0.01069549   -0.01069549   -0.01069549
     atom   10 type  1   force =    -0.01069549    0.01069549   -0.01069549
     atom   11 type  1   force =     0.01069549    0.01069549   -0.01069549
     atom   12 type  1   force =    -0.01069549   -0.01069549    0.01069549
     atom   13 type  1   force =     0.01069549   -0.01069549    0.01069549
     atom   14 type  1   force =    -0.01069549    0.01069549    0.01069549
     atom   15 type  1   force =     0.01069549    0.01069549    0.01069549

     Total force =     0.052397     Total SCF correction =     0.004980
     Energy error            =      3.2E-03 Ry
     Gradient error          =      1.1E-02 Ry/Bohr

     number of scf cycles    =   2
     number of bfgs steps    =   1

     energy             old  =   -3716.2817036040 Ry
     energy             new  =   -3716.2849365410 Ry

     CASE: energy            _new < energy            _old


     WARNING: bfgs curvature condition failed, Theta= 0.905
     new trust radius        =       0.0230548124 bohr
     new conv_thr            =       0.0000001070 Ry


ATOMIC_POSITIONS (crystal)
Fe               0.5000000000        0.0000000000        0.0000000000
Fe               0.0000000000        0.5000000000        0.0000000000
Fe               0.5000000000        0.5000000000        0.0000000000
Fe               0.0000000000        0.0000000000        0.5000000000
Fe               0.5000000000        0.0000000000        0.5000000000
Fe               0.0000000000        0.5000000000        0.5000000000
Fe               0.5000000000        0.5000000000        0.5000000000
Fe               0.2476540491        0.2476540491        0.2476540491
Fe               0.7523459509        0.2476540491        0.2476540491
Fe               0.2476540491        0.7523459509        0.2476540491
Fe               0.7523459509        0.7523459509        0.2476540491
Fe               0.2476540491        0.2476540491        0.7523459509
Fe               0.7523459509        0.2476540491        0.7523459509
Fe               0.2476540491        0.7523459509        0.7523459509
Fe               0.7523459509        0.7523459509        0.7523459509



     Writing config-only to output data dir ./outdir/fe15_vacancy.save/ :
     XML data file
     NEW-OLD atomic charge density approx. for the potential

     Check: negative core charge=   -0.000004

     negative rho (up, down):  0.000E+00 3.742E-03
     Generating pointlists ...

     total cpu time spent up to now is      606.1 secs

     per-process dynamical memory:   152.1 Mb

     Self-consistent Calculation

     iteration #  1     ecut=    45.00 Ry     beta= 0.10
     Davidson diagonalization with overlap
     ethr =  1.00E-06,  avg # of iterations =  7.7

     negative rho (up, down):  0.000E+00 3.673E-03

     total cpu time spent up to now is      647.5 secs

     total energy              =   -3716.28793329 Ry
     estimated scf accuracy    <       0.00691204 Ry

     total magnetization       =    37.17 Bohr mag/cell
     absolute magnetization    =    39.43 Bohr mag/cell

     iteration #  2     ecut=    45.00 Ry     beta= 0.10
     Davidson diagonalization with overlap
     ethr =  2.88E-06,  avg # of iterations =  1.0

     negative rho (up, down):  0.000E+00 3.567E-03

     total cpu time spent up to now is      661.7 secs

     total energy              =   -3716.28785831 Ry
     estimated scf accuracy    <       0.00342417 Ry

     total magnetization       =    37.15 Bohr mag/cell
     absolute magnetization    =    39.41 Bohr mag/cell

     iteration #  3     ecut=    45.00 Ry     beta= 0.10
     Davidson diagonalization with overlap
     ethr =  1.43E-06,  avg # of iterations =  1.4

     negative rho (up, down):  0.000E+00 3.355E-03

     total cpu time spent up to now is      676.6 secs

     total energy              =   -3716.28786936 Ry
     estimated scf accuracy    <       0.00068865 Ry

     total magnetization       =    37.11 Bohr mag/cell
     absolute magnetization    =    39.38 Bohr mag/cell

     iteration #  4     ecut=    45.00 Ry     beta= 0.10
     Davidson diagonalization with overlap
     ethr =  2.87E-07,  avg # of iterations =  2.2

     negative rho (up, down):  0.000E+00 3.254E-03

     total cpu time spent up to now is      694.0 secs

     total energy              =   -3716.28786705 Ry
     estimated scf accuracy    <       0.00032077 Ry

     total magnetization       =    37.13 Bohr mag/cell
     absolute magnetization    =    39.39 Bohr mag/cell

     iteration #  5     ecut=    45.00 Ry     beta= 0.10
     Davidson diagonalization with overlap
     ethr =  1.34E-07,  avg # of iterations =  2.9

     negative rho (up, down):  0.000E+00 3.270E-03

     total cpu time spent up to now is      710.9 secs

     total energy              =   -3716.28793925 Ry
     estimated scf accuracy    <       0.00003102 Ry

     total magnetization       =    37.11 Bohr mag/cell
     absolute magnetization    =    39.38 Bohr mag/cell

     iteration #  6     ecut=    45.00 Ry     beta= 0.10
     Davidson diagonalization with overlap
     ethr =  1.29E-08,  avg # of iterations =  4.0

     negative rho (up, down):  0.000E+00 3.250E-03

     total cpu time spent up to now is      729.2 secs

     total energy              =   -3716.28795658 Ry
     estimated scf accuracy    <       0.00000612 Ry

     total magnetization       =    37.11 Bohr mag/cell
     absolute magnetization    =    39.38 Bohr mag/cell

     iteration #  7     ecut=    45.00 Ry     beta= 0.10
     Davidson diagonalization with overlap
     ethr =  2.55E-09,  avg # of iterations =  4.2

     negative rho (up, down):  0.000E+00 3.245E-03

     total cpu time spent up to now is      749.7 secs

     total energy              =   -3716.28797403 Ry
     estimated scf accuracy    <       0.00002749 Ry

     total magnetization       =    37.12 Bohr mag/cell
     absolute magnetization    =    39.38 Bohr mag/cell

     iteration #  8     ecut=    45.00 Ry     beta= 0.10
     Davidson diagonalization with overlap
     ethr =  2.55E-09,  avg # of iterations =  2.0

     negative rho (up, down):  0.000E+00 3.234E-03

     total cpu time spent up to now is      765.8 secs

     total energy              =   -3716.28798838 Ry
     estimated scf accuracy    <       0.00000528 Ry

     total magnetization       =    37.11 Bohr mag/cell
     absolute magnetization    =    39.37 Bohr mag/cell

     iteration #  9     ecut=    45.00 Ry     beta= 0.10
     Davidson diagonalization with overlap
     ethr =  2.20E-09,  avg # of iterations =  2.1

     negative rho (up, down):  0.000E+00 3.221E-03

     total cpu time spent up to now is      782.5 secs

     total energy              =   -3716.28799911 Ry
     estimated scf accuracy    <       0.00000323 Ry

     total magnetization       =    37.11 Bohr mag/cell
     absolute magnetization    =    39.37 Bohr mag/cell

     iteration # 10     ecut=    45.00 Ry     beta= 0.10
     Davidson diagonalization with overlap
     ethr =  1.35E-09,  avg # of iterations =  2.5

     negative rho (up, down):  0.000E+00 3.218E-03

     total cpu time spent up to now is      800.4 secs

     total energy              =   -3716.28800778 Ry
     estimated scf accuracy    <       0.00000062 Ry

     total magnetization       =    37.10 Bohr mag/cell
     absolute magnetization    =    39.37 Bohr mag/cell

     iteration # 11     ecut=    45.00 Ry     beta= 0.10
     Davidson diagonalization with overlap
     ethr =  2.56E-10,  avg # of iterations =  3.2

     negative rho (up, down):  0.000E+00 3.214E-03

     total cpu time spent up to now is      817.5 secs

     total energy              =   -3716.28801383 Ry
     estimated scf accuracy    <       0.00000057 Ry

     total magnetization       =    37.10 Bohr mag/cell
     absolute magnetization    =    39.37 Bohr mag/cell

     iteration # 12     ecut=    45.00 Ry     beta= 0.10
     Davidson diagonalization with overlap
     ethr =  2.37E-10,  avg # of iterations =  1.6

     negative rho (up, down):  0.000E+00 3.191E-03

     total cpu time spent up to now is      832.5 secs

     total energy              =   -3716.28801569 Ry
     estimated scf accuracy    <       0.00000058 Ry

     total magnetization       =    37.10 Bohr mag/cell
     absolute magnetization    =    39.37 Bohr mag/cell

     iteration # 13     ecut=    45.00 Ry     beta= 0.10
     Davidson diagonalization with overlap
     ethr =  2.37E-10,  avg # of iterations =  4.6

     negative rho (up, down):  0.000E+00 3.191E-03

     total cpu time spent up to now is      856.0 secs

     total energy              =   -3716.28802177 Ry
     estimated scf accuracy    <       0.00000021 Ry

     total magnetization       =    37.10 Bohr mag/cell
     absolute magnetization    =    39.36 Bohr mag/cell

     iteration # 14     ecut=    45.00 Ry     beta= 0.10
     Davidson diagonalization with overlap
     ethr =  8.84E-11,  avg # of iterations =  2.9

     negative rho (up, down):  0.000E+00 3.188E-03

     total cpu time spent up to now is      874.1 secs

     total energy              =   -3716.28802555 Ry
     estimated scf accuracy    <       0.00000043 Ry

     total magnetization       =    37.10 Bohr mag/cell
     absolute magnetization    =    39.36 Bohr mag/cell

     iteration # 15     ecut=    45.00 Ry     beta= 0.10
     Davidson diagonalization with overlap
     ethr =  8.84E-11,  avg # of iterations =  1.5

     negative rho (up, down):  0.000E+00 3.178E-03

     total cpu time spent up to now is      889.0 secs

     total energy              =   -3716.28802725 Ry
     estimated scf accuracy    <       0.00000045 Ry

     total magnetization       =    37.10 Bohr mag/cell
     absolute magnetization    =    39.36 Bohr mag/cell

     iteration # 16     ecut=    45.00 Ry     beta= 0.10
     Davidson diagonalization with overlap
     ethr =  8.84E-11,  avg # of iterations =  3.1

     negative rho (up, down):  0.000E+00 3.175E-03

     total cpu time spent up to now is      908.1 secs

     total energy              =   -3716.28803003 Ry
     estimated scf accuracy    <       0.00000013 Ry

     total magnetization       =    37.10 Bohr mag/cell
     absolute magnetization    =    39.36 Bohr mag/cell

     iteration # 17     ecut=    45.00 Ry     beta= 0.10
     Davidson diagonalization with overlap
     ethr =  5.59E-11,  avg # of iterations =  2.0

     negative rho (up, down):  0.000E+00 3.163E-03

     total cpu time spent up to now is      924.6 secs

     total energy              =   -3716.28803013 Ry
     estimated scf accuracy    <       0.00000011 Ry

     total magnetization       =    37.10 Bohr mag/cell
     absolute magnetization    =    39.36 Bohr mag/cell

     iteration # 18     ecut=    45.00 Ry     beta= 0.10
     Davidson diagonalization with overlap
     ethr =  4.55E-11,  avg # of iterations =  4.9

     negative rho (up, down):  0.000E+00 3.165E-03

     total cpu time spent up to now is      949.1 secs

     total energy              =   -3716.28803348 Ry
     estimated scf accuracy    <       0.00000017 Ry

     total magnetization       =    37.10 Bohr mag/cell
     absolute magnetization    =    39.36 Bohr mag/cell

     iteration # 19     ecut=    45.00 Ry     beta= 0.10
     Davidson diagonalization with overlap
     ethr =  4.55E-11,  avg # of iterations =  2.8

     negative rho (up, down):  0.000E+00 3.177E-03

     total cpu time spent up to now is      968.8 secs

     total energy              =   -3716.28803520 Ry
     estimated scf accuracy    <       0.00000025 Ry

     total magnetization       =    37.10 Bohr mag/cell
     absolute magnetization    =    39.36 Bohr mag/cell

     iteration # 20     ecut=    45.00 Ry     beta= 0.10
     Davidson diagonalization with overlap
     ethr =  4.55E-11,  avg # of iterations =  5.0

     negative rho (up, down):  0.000E+00 3.172E-03

     total cpu time spent up to now is      998.8 secs

     total energy              =   -3716.28803687 Ry
     estimated scf accuracy    <       0.00000029 Ry

     total magnetization       =    37.10 Bohr mag/cell
     absolute magnetization    =    39.36 Bohr mag/cell

     iteration # 21     ecut=    45.00 Ry     beta= 0.10
     Davidson diagonalization with overlap
     ethr =  4.55E-11,  avg # of iterations =  2.0

     negative rho (up, down):  0.000E+00 3.171E-03

     total cpu time spent up to now is     1019.4 secs

     total energy              =   -3716.28803784 Ry
     estimated scf accuracy    <       0.00000014 Ry

     total magnetization       =    37.10 Bohr mag/cell
     absolute magnetization    =    39.36 Bohr mag/cell

     iteration # 22     ecut=    45.00 Ry     beta= 0.10
     Davidson diagonalization with overlap
     ethr =  4.55E-11,  avg # of iterations =  2.0

     negative rho (up, down):  0.000E+00 3.164E-03

     total cpu time spent up to now is     1037.0 secs

     total energy              =   -3716.28803812 Ry
     estimated scf accuracy    <       0.00000011 Ry

     total magnetization       =    37.10 Bohr mag/cell
     absolute magnetization    =    39.36 Bohr mag/cell

     iteration # 23     ecut=    45.00 Ry     beta= 0.10
     Davidson diagonalization with overlap
     ethr =  4.55E-11,  avg # of iterations =  3.3

     negative rho (up, down):  0.000E+00 3.155E-03

     Magnetic moment per site  (integrated on atomic sphere of radius R)
     atom   1 (R=0.179)  charge= 14.4460  magn=  2.2847
     atom   2 (R=0.179)  charge= 14.4460  magn=  2.2847
     atom   3 (R=0.179)  charge= 14.4122  magn=  2.5414
     atom   4 (R=0.179)  charge= 14.4460  magn=  2.2847
     atom   5 (R=0.179)  charge= 14.4122  magn=  2.5414
     atom   6 (R=0.179)  charge= 14.4122  magn=  2.5414
     atom   7 (R=0.179)  charge= 14.3959  magn=  2.7009
     atom   8 (R=0.179)  charge= 14.3776  magn=  2.6039
     atom   9 (R=0.179)  charge= 14.3776  magn=  2.6039
     atom  10 (R=0.179)  charge= 14.3776  magn=  2.6039
     atom  11 (R=0.179)  charge= 14.3776  magn=  2.6039
     atom  12 (R=0.179)  charge= 14.3776  magn=  2.6039
     atom  13 (R=0.179)  charge= 14.3776  magn=  2.6039
     atom  14 (R=0.179)  charge= 14.3776  magn=  2.6039
     atom  15 (R=0.179)  charge= 14.3776  magn=  2.6039

     total cpu time spent up to now is     1056.5 secs

     End of self-consistent calculation

 ------ SPIN UP ------------


          k = 0.0000 0.0000 0.0000 (  6451 PWs)   bands (ev):

   -72.1775 -72.1375 -72.1218 -72.1218 -72.1218 -72.1169 -72.1169 -72.1169
   -72.1130 -72.0864 -72.0864 -72.0669 -71.7181 -71.7181 -71.7149 -38.3122
   -38.3122 -38.3122 -38.2440 -38.2311 -38.2311 -38.2311 -38.2056 -38.2056
   -38.2056 -38.1775 -38.1775 -38.1775 -38.1721 -38.1070 -38.1070 -38.1047
   -38.1047 -38.1047 -38.0753 -38.0753 -38.0753 -38.0623 -38.0623 -38.0623
   -38.0463 -38.0463 -38.0463 -38.0327 -38.0327 -37.9949 -37.9949 -37.9949
   -37.9743 -37.9743 -37.9743 -37.7142 -37.7142 -37.7142 -37.6783 -37.6783
   -37.6783 -37.6775 -37.6775 -37.6775   8.1542  11.4028  11.4874  11.4874
    11.5702  11.5702  11.6035  11.6035  11.6035  11.7762  11.7762  11.7762
    12.1210  12.1210  12.5787  12.8512  12.8512  12.8512  12.9224  12.9224
    12.9224  13.0057  13.0057  13.0057  13.2567  13.2567  13.2567  13.3562
    13.5415  13.5415  13.5415  13.8434  13.8434  13.9197  13.9197  13.9197
    14.1587  14.1587  14.1587  14.2400  14.2400  14.2400  14.3498  14.3498
    14.3498  14.7516  14.7516  14.7516  14.7952  14.9551  14.9551  15.1202
    15.1202  15.1584  15.1658  15.1658  15.1658  15.2185  15.2185  15.2370
    15.2370  15.2370  15.2716  15.2716  15.3252  15.3252  15.3991  15.7035
    15.7035  15.7035  16.1688  16.1688  16.2811  16.2811  16.2811  16.2875
    16.2875  16.2875  16.4506  16.4506  16.4506  16.6975  16.6975  16.6975

          k = 0.0000 0.0000 0.2500 (  6495 PWs)   bands (ev):

   -72.1766 -72.1368 -72.1258 -72.1211 -72.1211 -72.1179 -72.1179 -72.1166
   -72.1134 -72.0866 -72.0828 -72.0683 -71.7183 -71.7178 -71.7152 -38.3140
   -38.3135 -38.3135 -38.2457 -38.2319 -38.2299 -38.2299 -38.2112 -38.2112
   -38.1966 -38.1824 -38.1676 -38.1676 -38.1612 -38.1341 -38.1205 -38.1194
   -38.1194 -38.1018 -38.0976 -38.0976 -38.0787 -38.0787 -38.0649 -38.0463
   -38.0453 -38.0411 -38.0402 -38.0191 -38.0191 -37.9973 -37.9882 -37.9882
   -37.9745 -37.9745 -37.9694 -37.7152 -37.7125 -37.7125 -37.6876 -37.6876
   -37.6847 -37.6833 -37.6833 -37.6831   8.4528  10.6156  11.5235  11.5625
    11.6410  11.6551  11.6551  11.6851  11.7742  11.8586  11.8586  11.8927
    12.1777  12.2394  12.5759  12.7771  12.7792  12.7911  12.7911  12.8741
    12.9682  12.9682  13.0352  13.1622  13.1622  13.2590  13.2590  13.3934
    13.3976  13.6868  13.6868  13.7984  13.8356  13.8356  13.9000  13.9268
    13.9455  13.9455  14.0957  14.1920  14.1920  14.3880  14.4412  14.5343
    14.5950  14.5950  14.6693  14.6693  14.7150  14.7203  14.8848  14.8848
    14.9263  15.0028  15.0891  15.1351  15.1520  15.2142  15.2277  15.2329
    15.2329  15.2403  15.2520  15.2879  15.3144  15.3492  15.3492  15.3741
    15.4539  15.6223  15.6881  15.7211  15.7211  16.1834  16.1835  16.1835
    16.2460  16.2942  16.4100  16.4100  16.5800  16.7359  16.9331  16.9331

          k = 0.0000 0.0000-0.5000 (  6480 PWs)   bands (ev):

   -72.1754 -72.1347 -72.1309 -72.1198 -72.1198 -72.1192 -72.1192 -72.1153
   -72.1147 -72.0866 -72.0781 -72.0710 -71.7183 -71.7171 -71.7159 -38.3053
   -38.3048 -38.3048 -38.2540 -38.2270 -38.2270 -38.2159 -38.1919 -38.1919
   -38.1903 -38.1902 -38.1815 -38.1815 -38.1579 -38.1487 -38.1425 -38.1410
   -38.1410 -38.1015 -38.0961 -38.0961 -38.0910 -38.0910 -38.0571 -38.0548
   -38.0458 -38.0454 -38.0283 -38.0048 -38.0048 -38.0000 -37.9820 -37.9820
   -37.9676 -37.9676 -37.9615 -37.7144 -37.7040 -37.7040 -37.6977 -37.6977
   -37.6875 -37.6832 -37.6832 -37.6818   9.1756   9.5219  11.6315  11.6713
    11.7680  11.7680  11.8572  11.8757  11.8757  11.9860  11.9864  12.0762
    12.1310  12.2291  12.3669  12.4836  12.5289  12.7533  12.7533  12.7635
    13.0402  13.0402  13.3194  13.3285  13.3285  13.3325  13.4440  13.5089
    13.5089  13.6514  13.6514  13.6675  13.7173  13.7173  13.8103  13.8855
    13.8855  13.9007  13.9137  14.0387  14.0387  14.1977  14.3301  14.3301
    14.5008  14.5044  14.5352  14.5352  14.6418  14.6652  14.8162  14.8271
    14.8271  14.8818  14.9038  15.1690  15.1690  15.2081  15.2109  15.2242
    15.2271  15.2346  15.2984  15.2984  15.3089  15.3110  15.3134  15.3951
    15.6510  15.7728  15.7728  15.8307  15.8523  15.8523  15.8668  15.9470
    16.0212  16.3879  16.5551  16.5551  16.6401  16.7841  16.8145  16.8284

          k = 0.0000 0.2500 0.2500 (  6500 PWs)   bands (ev):

   -72.1756 -72.1358 -72.1272 -72.1226 -72.1204 -72.1191 -72.1173 -72.1173
   -72.1141 -72.0842 -72.0817 -72.0699 -71.7180 -71.7177 -71.7156 -38.3098
   -38.3078 -38.3069 -38.2501 -38.2308 -38.2257 -38.2199 -38.2121 -38.2058
   -38.1983 -38.1883 -38.1803 -38.1651 -38.1599 -38.1537 -38.1399 -38.1302
   -38.1011 -38.0992 -38.0974 -38.0944 -38.0789 -38.0769 -38.0720 -38.0550
   -38.0510 -38.0478 -38.0408 -38.0183 -38.0032 -37.9917 -37.9916 -37.9777
   -37.9750 -37.9736 -37.9733 -37.7139 -37.7081 -37.7076 -37.6912 -37.6906
   -37.6880 -37.6851 -37.6844 -37.6789   8.7517  10.7189  10.8831  11.4960
    11.7110  11.7652  11.8051  11.8338  11.8704  11.9623  11.9913  12.0237
    12.2956  12.3166  12.6225  12.6759  12.6892  12.8003  12.8924  12.9231
    12.9802  12.9903  13.0040  13.0902  13.0938  13.1197  13.2793  13.4272
    13.4604  13.5478  13.6412  13.6881  13.7858  13.7936  13.8080  13.8386
    13.8759  14.0245  14.0625  14.1770  14.2280  14.3713  14.4554  14.4635
    14.4978  14.5100  14.5130  14.5892  14.6040  14.7084  14.7478  14.7735
    14.7835  14.9277  14.9438  15.0498  15.0533  15.0949  15.1552  15.2044
    15.2132  15.2268  15.2377  15.2669  15.2802  15.3852  15.4161  15.4578
    15.5043  15.5325  15.5661  15.6266  15.6542  15.6767  15.6924  15.8087
    15.9014  15.9154  16.3222  16.6688  16.7001  17.7010  17.7888  17.9714

          k = 0.0000 0.2500-0.5000 (  6452 PWs)   bands (ev):

   -72.1746 -72.1334 -72.1312 -72.1213 -72.1212 -72.1191 -72.1186 -72.1158
   -72.1152 -72.0833 -72.0779 -72.0727 -71.7179 -71.7170 -71.7162 -38.3009
   -38.2996 -38.2978 -38.2548 -38.2375 -38.2190 -38.2105 -38.2000 -38.1921
   -38.1911 -38.1836 -38.1801 -38.1798 -38.1761 -38.1547 -38.1418 -38.1401
   -38.1049 -38.0968 -38.0925 -38.0895 -38.0855 -38.0823 -38.0603 -38.0563
   -38.0557 -38.0502 -38.0217 -38.0138 -37.9984 -37.9899 -37.9867 -37.9781
   -37.9760 -37.9702 -37.9674 -37.7086 -37.6990 -37.6986 -37.6952 -37.6946
   -37.6901 -37.6831 -37.6825 -37.6781   9.4501   9.7688  11.1043  11.3471
    11.8567  11.9814  12.0528  12.0687  12.0691  12.0992  12.1285  12.1792
    12.2401  12.3179  12.4396  12.5028  12.6011  12.7757  12.8459  12.8588
    13.0163  13.0780  13.1456  13.1597  13.2291  13.2799  13.3032  13.3863
    13.4506  13.5184  13.6215  13.6343  13.6542  13.7314  13.7342  13.7698
    13.8022  13.8735  13.8811  13.9623  14.0411  14.1174  14.1380  14.2265
    14.2960  14.4268  14.5677  14.6012  14.6507  14.6924  14.7921  14.8432
    14.8806  14.8872  14.8973  14.9256  15.0150  15.0287  15.0946  15.1567
    15.1866  15.2177  15.2307  15.2664  15.2942  15.3212  15.3411  15.3607
    15.4115  15.4501  15.4974  15.5676  15.5769  15.6148  15.6298  15.8254
    15.8911  16.1820  16.2008  17.1744  17.2328  17.2527  17.3764  18.8713

          k = 0.0000-0.5000-0.5000 (  6496 PWs)   bands (ev):

   -72.1738 -72.1316 -72.1316 -72.1234 -72.1230 -72.1179 -72.1173 -72.1173
   -72.1167 -72.0777 -72.0777 -72.0771 -71.7171 -71.7171 -71.7171 -38.2994
   -38.2917 -38.2917 -38.2585 -38.2530 -38.2093 -38.2093 -38.2072 -38.1994
   -38.1982 -38.1929 -38.1929 -38.1779 -38.1779 -38.1507 -38.1462 -38.1320
   -38.0968 -38.0968 -38.0868 -38.0759 -38.0725 -38.0725 -38.0692 -38.0688
   -38.0688 -38.0651 -38.0311 -38.0102 -37.9991 -37.9991 -37.9950 -37.9880
   -37.9780 -37.9743 -37.9743 -37.7034 -37.6969 -37.6969 -37.6953 -37.6953
   -37.6951 -37.6880 -37.6876 -37.6773  10.1623  10.2298  10.2298  10.7961
    12.1190  12.1385  12.1385  12.2584  12.2869  12.3131  12.3131  12.3546
    12.4250  12.4250  12.6019  12.6441  12.6782  12.6782  12.7831  12.8075
    12.9323  12.9372  12.9783  13.0170  13.0170  13.1402  13.1402  13.4204
    13.4461  13.4828  13.4828  13.4964  13.6280  13.6729  13.6729  13.6907
    13.7375  13.7375  13.7888  13.8035  13.8629  13.8629  14.0456  14.1664
    14.2382  14.3678  14.5073  14.5073  14.7174  14.7709  14.8201  14.8201
    14.9148  14.9148  14.9367  14.9647  14.9707  14.9975  14.9975  15.0334
    15.0342  15.0342  15.0938  15.1028  15.1982  15.2499  15.2499  15.2883
    15.2883  15.2897  15.3427  15.4252  15.4518  15.5463  15.5463  15.8927
    15.8927  16.2903  16.3029  17.9444  18.0714  18.0714  18.2802  18.3225

          k = 0.2500 0.2500 0.2500 (  6493 PWs)   bands (ev):

   -72.1747 -72.1347 -72.1260 -72.1260 -72.1207 -72.1185 -72.1185 -72.1167
   -72.1146 -72.0815 -72.0815 -72.0714 -71.7177 -71.7177 -71.7160 -38.3036
   -38.3004 -38.3004 -38.2523 -38.2263 -38.2195 -38.2195 -38.2142 -38.1951
   -38.1951 -38.1911 -38.1780 -38.1780 -38.1640 -38.1640 -38.1515 -38.1128
   -38.0974 -38.0974 -38.0930 -38.0912 -38.0912 -38.0828 -38.0828 -38.0670
   -38.0550 -38.0550 -38.0336 -38.0036 -38.0036 -37.9951 -37.9816 -37.9816
   -37.9741 -37.9741 -37.9704 -37.7123 -37.7046 -37.7046 -37.6950 -37.6902
   -37.6902 -37.6864 -37.6808 -37.6808   9.0436  10.9352  10.9352  11.1498
    11.6776  11.6776  11.8168  11.9816  11.9816  12.0812  12.1485  12.1485
    12.4620  12.4620  12.6324  12.6725  12.6832  12.8482  12.8482  12.9404
    12.9404  12.9997  13.0223  13.0959  13.0959  13.2033  13.2033  13.3554
    13.4632  13.4632  13.4669  13.6137  13.6137  13.6852  13.6852  13.7874
    13.7874  13.8667  13.8672  14.0646  14.0646  14.1294  14.2911  14.2911
    14.3548  14.3548  14.4868  14.6304  14.6636  14.6687  14.6687  14.8943
    14.9216  14.9216  14.9830  15.0449  15.0553  15.0553  15.1464  15.1464
    15.1916  15.2074  15.2074  15.2380  15.2380  15.2699  15.3004  15.3004
    15.4694  15.4900  15.4900  15.6652  15.6652  15.7060  15.8061  15.8061
    15.9570  15.9570  15.9784  16.7122  16.7122  16.8008  18.6546  18.6546

          k = 0.2500 0.2500-0.5000 (  6456 PWs)   bands (ev):

   -72.1739 -72.1321 -72.1307 -72.1243 -72.1208 -72.1203 -72.1179 -72.1168
   -72.1148 -72.0813 -72.0776 -72.0739 -71.7176 -71.7170 -71.7165 -38.2948
   -38.2947 -38.2928 -38.2531 -38.2333 -38.2268 -38.2061 -38.2027 -38.1985
   -38.1917 -38.1814 -38.1799 -38.1708 -38.1689 -38.1605 -38.1564 -38.1102
   -38.1046 -38.0981 -38.0966 -38.0895 -38.0869 -38.0786 -38.0709 -38.0708
   -38.0695 -38.0625 -38.0229 -38.0136 -37.9930 -37.9833 -37.9820 -37.9803
   -37.9780 -37.9705 -37.9671 -37.7077 -37.7020 -37.6984 -37.6957 -37.6927
   -37.6910 -37.6860 -37.6815 -37.6785   9.7269  10.0229  11.3274  11.3611
    11.4640  11.7014  12.1830  12.2364  12.2475  12.2528  12.2876  12.2883
    12.3158  12.4405  12.4745  12.5799  12.7018  12.8266  12.8459  12.9491
    13.0276  13.0458  13.0707  13.1463  13.1564  13.2364  13.2603  13.2666
    13.3405  13.3941  13.5332  13.5514  13.5571  13.5731  13.5982  13.6279
    13.6330  13.6361  13.6402  13.6848  13.8329  13.9610  13.9705  14.0731
    14.1388  14.3283  14.4724  14.5096  14.7570  14.8380  14.8395  14.8872
    14.8956  14.8984  14.9009  14.9441  14.9964  15.0938  15.1303  15.1799
    15.1924  15.1935  15.2045  15.2792  15.2872  15.3128  15.3333  15.3370
    15.3439  15.5009  15.5388  15.5429  15.6212  15.8105  15.9380  15.9457
    15.9765  16.0093  16.0230  16.1494  16.1539  17.8228  18.0972  19.3740

          k = 0.2500-0.5000-0.5000 (  6472 PWs)   bands (ev):

   -72.1732 -72.1303 -72.1303 -72.1262 -72.1226 -72.1188 -72.1188 -72.1186
   -72.1140 -72.0774 -72.0774 -72.0771 -71.7171 -71.7171 -71.7171 -38.2903
   -38.2857 -38.2857 -38.2515 -38.2409 -38.2143 -38.2143 -38.2097 -38.1912
   -38.1893 -38.1872 -38.1872 -38.1687 -38.1621 -38.1621 -38.1480 -38.1068
   -38.0994 -38.0994 -38.0896 -38.0894 -38.0858 -38.0838 -38.0838 -38.0832
   -38.0740 -38.0740 -38.0403 -37.9992 -37.9948 -37.9948 -37.9824 -37.9765
   -37.9740 -37.9695 -37.9695 -37.7041 -37.7020 -37.7020 -37.7012 -37.6915
   -37.6915 -37.6900 -37.6819 -37.6797  10.4235  10.5008  10.5008  11.0048
    11.8245  11.9922  11.9922  12.3348  12.3422  12.3422  12.3584  12.6165
    12.6486  12.6507  12.6507  12.7384  12.7384  12.8127  12.8173  12.8425
    12.8623  12.9933  12.9933  13.0133  13.0529  13.0879  13.0879  13.2827
    13.2876  13.2876  13.2887  13.3524  13.3729  13.4468  13.4468  13.4914
    13.4914  13.5223  13.5270  13.6394  13.6394  13.7183  13.7339  13.7785
    13.9312  14.3394  14.3394  14.3805  14.8876  14.9629  14.9629  14.9796
    15.0278  15.0278  15.0441  15.0592  15.0913  15.1557  15.1557  15.1941
    15.2006  15.2153  15.2450  15.2450  15.2581  15.2682  15.2682  15.3695
    15.3695  15.3993  15.4117  15.5281  15.5405  15.5405  15.5484  15.7908
    15.7908  16.0252  16.0428  16.8004  16.8996  16.8996  17.0965  20.3161

          k =-0.5000-0.5000-0.5000 (  6488 PWs)   bands (ev):

   -72.1726 -72.1287 -72.1287 -72.1287 -72.1208 -72.1208 -72.1208 -72.1203
   -72.1122 -72.0769 -72.0769 -72.0769 -71.7170 -71.7170 -71.7170 -38.2781
   -38.2781 -38.2781 -38.2513 -38.2244 -38.2196 -38.2196 -38.2196 -38.1792
   -38.1792 -38.1762 -38.1762 -38.1762 -38.1497 -38.1497 -38.1497 -38.1123
   -38.1123 -38.1123 -38.1016 -38.1016 -38.0980 -38.0980 -38.0980 -38.0757
   -38.0757 -38.0757 -38.0496 -37.9877 -37.9877 -37.9877 -37.9772 -37.9772
   -37.9717 -37.9717 -37.9717 -37.7038 -37.7038 -37.7038 -37.7029 -37.6939
   -37.6939 -37.6939 -37.6836 -37.6836  11.0642  11.1387  11.1387  11.1387
    11.3120  11.3120  11.3120  12.2690  12.7484  12.7484  12.7484  12.7510
    12.7510  12.7510  12.7594  12.7594  12.8343  12.8343  12.8343  12.9496
    12.9496  12.9496  13.0390  13.0390  13.1207  13.1207  13.1207  13.1616
    13.1616  13.1616  13.1801  13.1801  13.1801  13.2423  13.2642  13.2642
    13.2644  13.2644  13.2644  13.2678  13.2678  13.2678  13.3104  13.7682
    13.7682  14.2879  14.2879  14.2879  15.0091  15.0091  15.0407  15.0407
    15.0407  15.0607  15.0607  15.0607  15.1614  15.1614  15.1614  15.2066
    15.2066  15.2066  15.3487  15.3487  15.4722  15.4722  15.4722  15.5005
    15.5005  15.5005  15.6299  15.6299  15.6299  15.6374  15.6374  15.8706
    15.8706  15.8706  16.0649  16.1887  16.1928  16.1928  16.1928  22.6622

 ------ SPIN DOWN ----------


          k = 0.0000 0.0000 0.0000 (  6451 PWs)   bands (ev):

   -68.9322 -68.8932 -68.8932 -68.8647 -68.8625 -68.8625 -68.8625 -68.8572
   -68.8572 -68.8572 -68.8524 -68.8398 -68.8398 -68.8099 -68.7731 -35.2089
   -35.2089 -35.2089 -35.1572 -35.1572 -35.1572 -35.0609 -35.0609 -35.0609
   -35.0273 -35.0273 -35.0087 -35.0087 -35.0087 -35.0034 -35.0034 -35.0034
   -34.9683 -34.9680 -34.9680 -34.9680 -34.9554 -34.9554 -34.9554 -34.9489
   -34.9489 -34.9489 -34.9410 -34.9410 -34.9082 -34.9082 -34.9082 -34.9031
   -34.9031 -34.9031 -34.8847 -34.7880 -34.7880 -34.7880 -34.7876 -34.7876
   -34.7876 -34.7763 -34.7763 -34.7763   8.3060  12.3030  12.3030  12.4209
    12.4209  12.4209  12.5474  13.0493  13.0493  13.0996  13.0996  13.0996
    13.8561  13.8659  13.8659  14.7741  14.7741  14.7741  14.8140  14.8140
    14.8140  14.9939  14.9939  14.9939  15.5265  15.5265  15.5265  15.7145
    15.7355  15.7355  15.7355  16.3309  16.3309  16.3838  16.3838  16.3838
    16.5020  16.5020  16.5020  16.5558  16.5558  16.5558  16.6588  16.6588
    16.6588  16.8088  16.8088  16.8088  17.2372  17.2372  17.2372  17.4959
    17.4959  17.5561  17.5561  17.5561  17.7998  17.9533  17.9533  17.9533
    18.1071  18.1071  18.1496  18.2398  18.2398  18.3914  18.3914  18.3929
    18.3929  18.3929  18.4172  18.4172  18.4251  18.6663  18.6663  18.6663
    18.8384  18.8384  19.0086  19.0086  19.0086  19.0095  19.0095  19.0095

          k = 0.0000 0.0000 0.2500 (  6495 PWs)   bands (ev):

   -68.9278 -68.9000 -68.8932 -68.8695 -68.8617 -68.8617 -68.8602 -68.8581
   -68.8581 -68.8566 -68.8531 -68.8399 -68.8327 -68.8117 -68.7737 -35.2023
   -35.2023 -35.2016 -35.1492 -35.1488 -35.1488 -35.0817 -35.0817 -35.0756
   -35.0743 -35.0504 -35.0503 -35.0503 -35.0226 -35.0226 -35.0034 -34.9851
   -34.9724 -34.9724 -34.9555 -34.9551 -34.9546 -34.9492 -34.9249 -34.9249
   -34.9237 -34.9237 -34.9194 -34.9062 -34.9051 -34.8985 -34.8979 -34.8979
   -34.8948 -34.8756 -34.8756 -34.8177 -34.8081 -34.8081 -34.8061 -34.8057
   -34.8057 -34.7880 -34.7880 -34.7870   8.6090  10.8953  12.4601  12.5870
    12.5870  12.6137  13.0562  13.0700  13.0700  13.1156  13.2980  13.4347
    13.9050  13.9998  14.0144  14.5559  14.5585  14.7569  14.7569  14.9937
    14.9937  15.0710  15.0710  15.0835  15.1261  15.4273  15.4273  15.5371
    15.6318  15.7152  15.7152  16.1081  16.1193  16.1193  16.1212  16.1350
    16.2204  16.2204  16.3083  16.3083  16.3113  16.5264  16.5264  16.6512
    16.7413  16.8499  16.9133  16.9133  17.0608  17.1201  17.1201  17.3393
    17.5805  17.5805  17.6459  17.9251  17.9306  17.9496  17.9496  17.9857
    18.0132  18.0879  18.1373  18.1501  18.3049  18.3423  18.3782  18.3986
    18.4140  18.4711  18.4711  18.5574  18.6653  18.6688  18.7758  18.7758
    18.7949  18.8857  18.8891  18.8891  18.8987  18.9894  19.0445  19.0445

          k = 0.0000 0.0000-0.5000 (  6480 PWs)   bands (ev):

   -68.9183 -68.9118 -68.8931 -68.8713 -68.8602 -68.8602 -68.8597 -68.8596
   -68.8596 -68.8552 -68.8546 -68.8400 -68.8249 -68.8152 -68.7743 -35.1534
   -35.1528 -35.1528 -35.1517 -35.1517 -35.1393 -35.1194 -35.1194 -35.1157
   -35.1114 -35.0833 -35.0833 -35.0645 -35.0219 -35.0219 -35.0117 -34.9921
   -34.9921 -34.9712 -34.9681 -34.9544 -34.9538 -34.9482 -34.9272 -34.9272
   -34.9027 -34.9022 -34.8890 -34.8767 -34.8767 -34.8724 -34.8671 -34.8671
   -34.8640 -34.8554 -34.8428 -34.8428 -34.8387 -34.8387 -34.8271 -34.8245
   -34.8245 -34.7937 -34.7937 -34.7924   9.3474   9.7032  12.6727  12.7515
    12.8917  12.8917  12.9326  12.9326  13.0416  13.3177  13.6991  13.7151
    13.9390  14.1294  14.1387  14.1822  14.2307  14.7422  14.7814  14.7814
    14.9867  14.9867  15.4513  15.4513  15.4954  15.4966  15.4966  15.4996
    15.5128  15.5128  15.5341  15.5363  15.6093  15.6223  15.6223  15.9490
    15.9490  15.9827  16.0380  16.0380  16.1915  16.3279  16.3279  16.3495
    16.6954  17.0035  17.0035  17.3853  17.4450  17.5063  17.5063  17.5329
    17.5707  17.6496  17.6949  17.6949  17.7668  17.8905  17.8905  17.9768
    18.2395  18.2502  18.2705  18.3412  18.3412  18.3614  18.3772  18.3803
    18.4004  18.4224  18.4892  18.5086  18.5463  18.5903  18.6022  18.6022
    18.7327  18.7581  18.8726  18.9654  18.9654  19.0002  19.0981  19.1002

          k = 0.0000 0.2500 0.2500 (  6500 PWs)   bands (ev):

   -68.9236 -68.9011 -68.8968 -68.8721 -68.8640 -68.8610 -68.8609 -68.8574
   -68.8574 -68.8566 -68.8538 -68.8352 -68.8305 -68.8136 -68.7741 -35.1965
   -35.1877 -35.1790 -35.1470 -35.1370 -35.1272 -35.1172 -35.1101 -35.1008
   -35.0876 -35.0566 -35.0528 -35.0341 -35.0236 -35.0032 -34.9987 -34.9914
   -34.9844 -34.9771 -34.9769 -34.9612 -34.9610 -34.9560 -34.9432 -34.9382
   -34.9362 -34.9282 -34.9063 -34.9033 -34.8964 -34.8930 -34.8827 -34.8793
   -34.8597 -34.8568 -34.8503 -34.8380 -34.8262 -34.8164 -34.8126 -34.8101
   -34.7911 -34.7904 -34.7891 -34.7874   8.9122  11.0268  11.2373  12.5253
    12.7243  12.7712  13.2183  13.2772  13.3079  13.4299  13.5024  13.6114
    14.0054  14.0536  14.1629  14.4740  14.5091  14.8208  14.8325  14.9269
    14.9432  15.0260  15.0394  15.0791  15.1459  15.1575  15.2695  15.5660
    15.5782  15.6098  15.6627  15.7802  15.8208  15.8562  15.9258  15.9352
    15.9713  16.0977  16.2020  16.2246  16.3067  16.3290  16.3640  16.5129
    16.7383  16.8472  16.8786  17.1237  17.1319  17.2821  17.3037  17.3411
    17.3943  17.5474  17.6184  17.8763  17.9161  17.9736  18.0113  18.0453
    18.0577  18.1779  18.1879  18.2360  18.2452  18.2725  18.3064  18.3175
    18.3737  18.3839  18.4268  18.4428  18.4752  18.5229  18.5297  18.5931
    18.6319  18.7574  19.0266  19.0634  19.1637  19.6020  19.6885  19.8320

          k = 0.0000 0.2500-0.5000 (  6452 PWs)   bands (ev):

   -68.9151 -68.9099 -68.8973 -68.8742 -68.8634 -68.8632 -68.8595 -68.8589
   -68.8559 -68.8556 -68.8553 -68.8336 -68.8241 -68.8175 -68.7745 -35.1635
   -35.1592 -35.1474 -35.1467 -35.1384 -35.1361 -35.1313 -35.1300 -35.1160
   -35.0781 -35.0713 -35.0611 -35.0372 -35.0305 -35.0207 -35.0046 -34.9880
   -34.9877 -34.9724 -34.9713 -34.9674 -34.9533 -34.9472 -34.9461 -34.9312
   -34.9289 -34.9244 -34.9056 -34.9012 -34.9000 -34.8888 -34.8695 -34.8620
   -34.8382 -34.8371 -34.8363 -34.8344 -34.8341 -34.8226 -34.8223 -34.8065
   -34.8032 -34.7915 -34.7898 -34.7883   9.6335   9.9675  11.6098  11.9661
    12.9470  13.0974  13.1706  13.3534  13.6687  13.7331  13.7770  13.7863
    14.0056  14.0926  14.2206  14.2462  14.3263  14.7339  14.8570  14.8812
    14.9536  15.0131  15.0716  15.1735  15.2251  15.2642  15.3088  15.3302
    15.4164  15.5074  15.5362  15.5576  15.5691  15.7044  15.7080  15.7210
    15.8066  15.9467  15.9473  16.0678  16.0884  16.1031  16.1881  16.5764
    16.6356  16.9384  17.1815  17.3282  17.3529  17.4159  17.4301  17.4804
    17.5746  17.6098  17.6322  17.6465  17.6703  17.7682  17.8588  17.9781
    18.0249  18.1240  18.1748  18.1788  18.2811  18.2942  18.3419  18.3443
    18.3796  18.4278  18.4339  18.4360  18.4479  18.4547  18.4781  18.6989
    18.7185  18.8481  18.8854  19.3893  19.3932  19.4518  19.5252  20.4773

          k = 0.0000-0.5000-0.5000 (  6496 PWs)   bands (ev):

   -68.9076 -68.9076 -68.9057 -68.8780 -68.8646 -68.8646 -68.8580 -68.8574
   -68.8574 -68.8568 -68.8541 -68.8250 -68.8233 -68.8233 -68.7747 -35.1585
   -35.1539 -35.1518 -35.1518 -35.1450 -35.1450 -35.1365 -35.1331 -35.1146
   -35.0731 -35.0317 -35.0317 -35.0216 -35.0216 -35.0001 -35.0001 -34.9971
   -34.9837 -34.9833 -34.9819 -34.9782 -34.9701 -34.9655 -34.9650 -34.9650
   -34.9444 -34.9433 -34.9433 -34.9287 -34.9150 -34.8728 -34.8660 -34.8660
   -34.8342 -34.8342 -34.8329 -34.8329 -34.8275 -34.8236 -34.8188 -34.7952
   -34.7927 -34.7889 -34.7889 -34.7886  10.4009  10.4926  10.4926  11.1248
    13.4250  13.4277  13.5372  13.5372  13.6751  13.6751  13.7664  14.0320
    14.0320  14.0779  14.3802  14.4632  14.5792  14.5792  14.6629  14.7591
    14.8247  14.8969  14.9255  15.0650  15.0650  15.1159  15.1159  15.3632
    15.3669  15.3886  15.3886  15.4406  15.4406  15.5768  15.6141  15.6704
    15.6917  15.7881  16.0217  16.0217  16.0505  16.1915  16.1915  16.5368
    16.6962  16.8466  17.0038  17.0038  17.2700  17.2700  17.3412  17.6225
    17.6425  17.6706  17.7442  17.7442  17.7931  17.8121  17.8121  17.8378
    17.9272  17.9495  17.9495  18.0974  18.1407  18.2170  18.2384  18.2384
    18.3122  18.3122  18.3361  18.4206  18.4206  18.4260  18.4312  18.7843
    18.7843  18.9843  18.9967  19.8934  20.1367  20.1367  20.2421  20.3143

          k = 0.2500 0.2500 0.2500 (  6493 PWs)   bands (ev):

   -68.9199 -68.9002 -68.9002 -68.8732 -68.8673 -68.8673 -68.8590 -68.8572
   -68.8549 -68.8549 -68.8531 -68.8304 -68.8304 -68.8154 -68.7743 -35.1828
   -35.1662 -35.1662 -35.1327 -35.1327 -35.1254 -35.1254 -35.1226 -35.1144
   -35.0595 -35.0595 -35.0506 -35.0506 -35.0263 -35.0225 -35.0225 -35.0166
   -35.0055 -34.9889 -34.9761 -34.9761 -34.9485 -34.9485 -34.9226 -34.9192
   -34.9192 -34.9129 -34.9129 -34.9018 -34.8984 -34.8978 -34.8978 -34.8885
   -34.8496 -34.8400 -34.8377 -34.8377 -34.8232 -34.8232 -34.8115 -34.8029
   -34.8029 -34.7911 -34.7911 -34.7911   9.2095  11.2759  11.2759  11.5750
    12.7035  12.7035  12.9521  13.6628  13.6628  13.6659  13.7701  13.7701
    14.1716  14.1716  14.1918  14.3258  14.5457  14.7781  14.8321  14.8321
    14.9645  14.9645  15.0722  15.0980  15.0980  15.1955  15.1955  15.4845
    15.5226  15.5546  15.5546  15.5892  15.5892  15.6757  15.7710  15.7710
    15.8788  15.8856  15.8856  16.0944  16.0944  16.1967  16.1967  16.4004
    16.6684  16.9052  16.9052  17.2508  17.3250  17.3430  17.4983  17.4983
    17.5756  17.5756  17.6171  17.8267  17.8267  17.9319  18.0051  18.0129
    18.0129  18.1592  18.1592  18.2694  18.2694  18.2700  18.3220  18.3220
    18.3391  18.3834  18.3834  18.4751  18.4751  18.5700  18.5700  18.5888
    18.6475  18.6475  18.6630  19.0592  19.0592  19.1197  20.3872  20.3872

          k = 0.2500 0.2500-0.5000 (  6456 PWs)   bands (ev):

   -68.9123 -68.9081 -68.8993 -68.8744 -68.8698 -68.8687 -68.8595 -68.8583
   -68.8536 -68.8534 -68.8525 -68.8304 -68.8239 -68.8192 -68.7746 -35.1581
   -35.1552 -35.1467 -35.1441 -35.1284 -35.1261 -35.1246 -35.1215 -35.0859
   -35.0808 -35.0779 -35.0573 -35.0392 -35.0392 -35.0343 -35.0206 -35.0101
   -34.9983 -34.9930 -34.9817 -34.9776 -34.9612 -34.9550 -34.9429 -34.9208
   -34.9177 -34.9027 -34.8987 -34.8971 -34.8968 -34.8793 -34.8731 -34.8665
   -34.8563 -34.8489 -34.8347 -34.8323 -34.8291 -34.8165 -34.8119 -34.8098
   -34.8025 -34.7924 -34.7922 -34.7907   9.9195  10.2346  11.8270  11.8980
    12.0490  12.3771  13.2861  13.7029  13.8717  13.8835  13.9764  14.0422
    14.0602  14.1931  14.2841  14.3913  14.4948  14.7687  14.9074  14.9123
    14.9442  14.9701  15.0376  15.0513  15.0956  15.1452  15.2006  15.2150
    15.3385  15.4423  15.4746  15.4933  15.5243  15.5514  15.6415  15.6697
    15.6779  15.7596  15.8572  15.8948  15.8989  15.9986  16.0016  16.4080
    16.5415  16.9943  16.9959  17.0720  17.4555  17.4698  17.5352  17.5641
    17.7394  17.7406  17.7436  17.8002  17.8138  17.9152  17.9247  18.0768
    18.1102  18.1604  18.1751  18.2297  18.2441  18.2543  18.3407  18.3445
    18.3567  18.3761  18.3804  18.4465  18.4493  18.4772  18.5774  18.6004
    18.6015  18.6109  18.6440  18.7008  18.7488  19.9173  20.1576  20.9668

          k = 0.2500-0.5000-0.5000 (  6472 PWs)   bands (ev):

   -68.9060 -68.9060 -68.9050 -68.8771 -68.8714 -68.8714 -68.8613 -68.8593
   -68.8518 -68.8518 -68.8504 -68.8245 -68.8237 -68.8237 -68.7747 -35.1428
   -35.1399 -35.1399 -35.1383 -35.1242 -35.1242 -35.1212 -35.1205 -35.0966
   -35.0733 -35.0523 -35.0523 -35.0406 -35.0404 -35.0310 -35.0310 -35.0242
   -35.0229 -35.0229 -35.0023 -34.9962 -34.9513 -34.9513 -34.9435 -34.9082
   -34.9082 -34.9078 -34.9077 -34.9033 -34.8953 -34.8695 -34.8695 -34.8682
   -34.8488 -34.8488 -34.8381 -34.8291 -34.8272 -34.8272 -34.8199 -34.8110
   -34.8035 -34.7945 -34.7945 -34.7930  10.6700  10.7702  10.7702  11.3367
    12.4394  12.6256  12.6256  13.3078  14.2184  14.2184  14.2236  14.2750
    14.3379  14.3379  14.5101  14.6425  14.6425  14.6569  14.6842  14.7204
    14.8577  14.9549  14.9549  15.0163  15.0626  15.1400  15.1400  15.2066
    15.2727  15.3084  15.3084  15.3896  15.3896  15.4625  15.4899  15.5084
    15.6306  15.7335  15.7335  15.8481  15.8533  15.8533  15.9020  15.9150
    16.2017  16.9796  16.9796  17.0584  17.7163  17.7163  17.7390  17.8004
    17.8438  17.8855  17.9047  17.9047  17.9090  17.9090  17.9649  17.9697
    18.0131  18.0283  18.0283  18.1184  18.1925  18.2103  18.2103  18.2123
    18.2762  18.3079  18.3079  18.3405  18.3729  18.3729  18.4124  18.6119
    18.6119  18.6362  18.6818  19.1852  19.2336  19.2336  19.3882  21.8537

          k =-0.5000-0.5000-0.5000 (  6488 PWs)   bands (ev):

   -68.9042 -68.9042 -68.9042 -68.8761 -68.8761 -68.8761 -68.8640 -68.8608
   -68.8485 -68.8485 -68.8485 -68.8241 -68.8241 -68.8241 -68.7746 -35.1088
   -35.1088 -35.1088 -35.1003 -35.1003 -35.0925 -35.0925 -35.0925 -35.0890
   -35.0890 -35.0890 -35.0858 -35.0858 -35.0744 -35.0744 -35.0744 -35.0615
   -35.0278 -35.0157 -35.0157 -35.0157 -34.9399 -34.9399 -34.9399 -34.8771
   -34.8771 -34.8771 -34.8739 -34.8739 -34.8739 -34.8703 -34.8703 -34.8619
   -34.8619 -34.8619 -34.8589 -34.8392 -34.8392 -34.8392 -34.8321 -34.8280
   -34.8280 -34.7997 -34.7997 -34.7997  11.3830  11.4459  11.4459  11.4459
    11.6603  11.6603  11.6603  12.7950  14.6114  14.6114  14.6114  14.6237
    14.6237  14.6620  14.6620  14.6620  14.6912  14.6912  14.6912  14.9531
    14.9531  14.9531  15.1398  15.1398  15.1721  15.1721  15.1721  15.2533
    15.2533  15.2533  15.2546  15.2546  15.2546  15.2623  15.2938  15.2938
    15.2939  15.2939  15.2939  15.5009  15.5250  15.5250  15.5250  15.8980
    15.8980  17.0022  17.0022  17.0022  18.0712  18.0712  18.0712  18.0799
    18.0799  18.0947  18.0947  18.0957  18.0957  18.0957  18.0969  18.0969
    18.0969  18.1603  18.1603  18.1603  18.1830  18.1830  18.1830  18.1875
    18.1875  18.1875  18.2280  18.2280  18.3566  18.3566  18.3566  18.4085
    18.4085  18.4085  18.5963  18.6461  18.6461  18.6461  18.7478  23.8181

     the Fermi energy is    16.2273 ev

!    total energy              =   -3716.28804185 Ry
     estimated scf accuracy    <       0.00000006 Ry
     smearing contrib. (-TS)   =       0.01562117 Ry
     internal energy E=F+TS    =   -3716.30366302 Ry

     The total energy is F=E-TS. E is the sum of the following terms:
     one-electron contribution =   -1887.30386385 Ry
     hartree contribution      =    1068.42358280 Ry
     xc contribution           =    -416.22441361 Ry
     ewald contribution        =   -2481.19896836 Ry

     total magnetization       =    37.10 Bohr mag/cell
     absolute magnetization    =    39.36 Bohr mag/cell

     convergence has been achieved in  23 iterations

     negative rho (up, down):  0.000E+00 3.155E-03

     Forces acting on atoms (cartesian axes, Ry/au):

     atom    1 type  1   force =     0.00000000    0.00000000    0.00000000
     atom    2 type  1   force =     0.00000000    0.00000000    0.00000000
     atom    3 type  1   force =     0.00000000    0.00000000    0.00000000
     atom    4 type  1   force =     0.00000000    0.00000000    0.00000000
     atom    5 type  1   force =     0.00000000    0.00000000    0.00000000
     atom    6 type  1   force =     0.00000000    0.00000000    0.00000000
     atom    7 type  1   force =     0.00000000    0.00000000    0.00000000
     atom    8 type  1   force =    -0.00906188   -0.00906188   -0.00906188
     atom    9 type  1   force =     0.00906188   -0.00906188   -0.00906188
     atom   10 type  1   force =    -0.00906188    0.00906188   -0.00906188
     atom   11 type  1   force =     0.00906188    0.00906188   -0.00906188
     atom   12 type  1   force =    -0.00906188   -0.00906188    0.00906188
     atom   13 type  1   force =     0.00906188   -0.00906188    0.00906188
     atom   14 type  1   force =    -0.00906188    0.00906188    0.00906188
     atom   15 type  1   force =     0.00906188    0.00906188    0.00906188

     Total force =     0.044394     Total SCF correction =     0.000935
     Energy error            =      3.1E-03 Ry
     Gradient error          =      9.1E-03 Ry/Bohr

     number of scf cycles    =   3
     number of bfgs steps    =   2

     energy             old  =   -3716.2849365410 Ry
     energy             new  =   -3716.2880418485 Ry

     CASE: energy            _new < energy            _old

     new trust radius        =       0.0345822187 bohr
     new conv_thr            =       0.0000000906 Ry


ATOMIC_POSITIONS (crystal)
Fe               0.5000000000        0.0000000000        0.0000000000
Fe               0.0000000000        0.5000000000        0.0000000000
Fe               0.5000000000        0.5000000000        0.0000000000
Fe               0.0000000000        0.0000000000        0.5000000000
Fe               0.5000000000        0.0000000000        0.5000000000
Fe               0.0000000000        0.5000000000        0.5000000000
Fe               0.5000000000        0.5000000000        0.5000000000
Fe               0.2458108019        0.2458108019        0.2458108019
Fe               0.7541891981        0.2458108019        0.2458108019
Fe               0.2458108019        0.7541891981        0.2458108019
Fe               0.7541891981        0.7541891981        0.2458108019
Fe               0.2458108019        0.2458108019        0.7541891981
Fe               0.7541891981        0.2458108019        0.7541891981
Fe               0.2458108019        0.7541891981        0.7541891981
Fe               0.7541891981        0.7541891981        0.7541891981



     Writing config-only to output data dir ./outdir/fe15_vacancy.save/ :
     XML data file
     NEW-OLD atomic charge density approx. for the potential

     Check: negative core charge=   -0.000004

     negative rho (up, down):  0.000E+00 2.145E-03
     Generating pointlists ...

     total cpu time spent up to now is     1059.6 secs

     per-process dynamical memory:   152.1 Mb

     Self-consistent Calculation

     iteration #  1     ecut=    45.00 Ry     beta= 0.10
     Davidson diagonalization with overlap
     c_bands:  1 eigenvalues not converged
     ethr =  1.00E-06,  avg # of iterations =  8.8

     negative rho (up, down):  0.000E+00 2.147E-03

     total cpu time spent up to now is     1106.3 secs

     total energy              =   -3716.29163345 Ry
     estimated scf accuracy    <       0.01602929 Ry

     total magnetization       =    37.18 Bohr mag/cell
     absolute magnetization    =    39.47 Bohr mag/cell

     iteration #  2     ecut=    45.00 Ry     beta= 0.10
     Davidson diagonalization with overlap
     ethr =  6.68E-06,  avg # of iterations =  1.4

     negative rho (up, down):  0.000E+00 2.152E-03

     total cpu time spent up to now is     1121.1 secs

     total energy              =   -3716.29144753 Ry
     estimated scf accuracy    <       0.00762660 Ry

     total magnetization       =    37.14 Bohr mag/cell
     absolute magnetization    =    39.44 Bohr mag/cell

     iteration #  3     ecut=    45.00 Ry     beta= 0.10
     Davidson diagonalization with overlap
     ethr =  3.18E-06,  avg # of iterations =  1.4

     negative rho (up, down):  0.000E+00 2.149E-03

     total cpu time spent up to now is     1135.8 secs

     total energy              =   -3716.29150254 Ry
     estimated scf accuracy    <       0.00146445 Ry

     total magnetization       =    37.08 Bohr mag/cell
     absolute magnetization    =    39.38 Bohr mag/cell

     iteration #  4     ecut=    45.00 Ry     beta= 0.10
     Davidson diagonalization with overlap
     ethr =  6.10E-07,  avg # of iterations =  2.2

     negative rho (up, down):  0.000E+00 2.149E-03

     total cpu time spent up to now is     1152.7 secs

     total energy              =   -3716.29145459 Ry
     estimated scf accuracy    <       0.00093298 Ry

     total magnetization       =    37.11 Bohr mag/cell
     absolute magnetization    =    39.41 Bohr mag/cell

     iteration #  5     ecut=    45.00 Ry     beta= 0.10
     Davidson diagonalization with overlap
     ethr =  3.89E-07,  avg # of iterations =  2.8

     negative rho (up, down):  0.000E+00 2.147E-03

     total cpu time spent up to now is     1169.2 secs

     total energy              =   -3716.29163246 Ry
     estimated scf accuracy    <       0.00014118 Ry

     total magnetization       =    37.08 Bohr mag/cell
     absolute magnetization    =    39.38 Bohr mag/cell

     iteration #  6     ecut=    45.00 Ry     beta= 0.10
     Davidson diagonalization with overlap
     ethr =  5.88E-08,  avg # of iterations =  3.1

     negative rho (up, down):  0.000E+00 2.145E-03

     total cpu time spent up to now is     1185.8 secs

     total energy              =   -3716.29166739 Ry
     estimated scf accuracy    <       0.00001168 Ry

     total magnetization       =    37.08 Bohr mag/cell
     absolute magnetization    =    39.38 Bohr mag/cell

     iteration #  7     ecut=    45.00 Ry     beta= 0.10
     Davidson diagonalization with overlap
     ethr =  4.86E-09,  avg # of iterations =  4.7

     negative rho (up, down):  0.000E+00 2.144E-03

     total cpu time spent up to now is     1207.0 secs

     total energy              =   -3716.29171048 Ry
     estimated scf accuracy    <       0.00003920 Ry

     total magnetization       =    37.09 Bohr mag/cell
     absolute magnetization    =    39.38 Bohr mag/cell

     iteration #  8     ecut=    45.00 Ry     beta= 0.10
     Davidson diagonalization with overlap
     ethr =  4.86E-09,  avg # of iterations =  2.2

     negative rho (up, down):  0.000E+00 2.143E-03

     total cpu time spent up to now is     1223.4 secs

     total energy              =   -3716.29173185 Ry
     estimated scf accuracy    <       0.00000790 Ry

     total magnetization       =    37.08 Bohr mag/cell
     absolute magnetization    =    39.38 Bohr mag/cell

     iteration #  9     ecut=    45.00 Ry     beta= 0.10
     Davidson diagonalization with overlap
     ethr =  3.29E-09,  avg # of iterations =  2.0

     negative rho (up, down):  0.000E+00 2.141E-03

     total cpu time spent up to now is     1239.8 secs

     total energy              =   -3716.29175260 Ry
     estimated scf accuracy    <       0.00000652 Ry

     total magnetization       =    37.07 Bohr mag/cell
     absolute magnetization    =    39.37 Bohr mag/cell

     iteration # 10     ecut=    45.00 Ry     beta= 0.10
     Davidson diagonalization with overlap
     ethr =  2.72E-09,  avg # of iterations =  2.4

     negative rho (up, down):  0.000E+00 2.141E-03

     total cpu time spent up to now is     1257.1 secs

     total energy              =   -3716.29177225 Ry
     estimated scf accuracy    <       0.00000190 Ry

     total magnetization       =    37.07 Bohr mag/cell
     absolute magnetization    =    39.37 Bohr mag/cell

     iteration # 11     ecut=    45.00 Ry     beta= 0.10
     Davidson diagonalization with overlap
     ethr =  7.92E-10,  avg # of iterations =  2.5

     negative rho (up, down):  0.000E+00 2.141E-03

     total cpu time spent up to now is     1273.3 secs

     total energy              =   -3716.29178477 Ry
     estimated scf accuracy    <       0.00000118 Ry

     total magnetization       =    37.07 Bohr mag/cell
     absolute magnetization    =    39.37 Bohr mag/cell

     iteration # 12     ecut=    45.00 Ry     beta= 0.10
     Davidson diagonalization with overlap
     ethr =  4.92E-10,  avg # of iterations =  2.4

     negative rho (up, down):  0.000E+00 2.140E-03

     total cpu time spent up to now is     1290.4 secs

     total energy              =   -3716.29179571 Ry
     estimated scf accuracy    <       0.00000169 Ry

     total magnetization       =    37.07 Bohr mag/cell
     absolute magnetization    =    39.37 Bohr mag/cell

     iteration # 13     ecut=    45.00 Ry     beta= 0.10
     Davidson diagonalization with overlap
     ethr =  4.92E-10,  avg # of iterations =  2.5

     negative rho (up, down):  0.000E+00 2.138E-03

     total cpu time spent up to now is     1308.3 secs

     total energy              =   -3716.29179907 Ry
     estimated scf accuracy    <       0.00000197 Ry

     total magnetization       =    37.07 Bohr mag/cell
     absolute magnetization    =    39.37 Bohr mag/cell

     iteration # 14     ecut=    45.00 Ry     beta= 0.10
     Davidson diagonalization with overlap
     ethr =  4.92E-10,  avg # of iterations =  4.4

     negative rho (up, down):  0.000E+00 2.138E-03

     total cpu time spent up to now is     1330.3 secs

     total energy              =   -3716.29180858 Ry
     estimated scf accuracy    <       0.00000085 Ry

     total magnetization       =    37.06 Bohr mag/cell
     absolute magnetization    =    39.36 Bohr mag/cell

     iteration # 15     ecut=    45.00 Ry     beta= 0.10
     Davidson diagonalization with overlap
     ethr =  3.54E-10,  avg # of iterations =  1.6

     negative rho (up, down):  0.000E+00 2.139E-03

     total cpu time spent up to now is     1345.8 secs

     total energy              =   -3716.29181427 Ry
     estimated scf accuracy    <       0.00000068 Ry

     total magnetization       =    37.06 Bohr mag/cell
     absolute magnetization    =    39.36 Bohr mag/cell

     iteration # 16     ecut=    45.00 Ry     beta= 0.10
     Davidson diagonalization with overlap
     ethr =  2.83E-10,  avg # of iterations =  2.8

     negative rho (up, down):  0.000E+00 2.138E-03

     total cpu time spent up to now is     1364.4 secs

     total energy              =   -3716.29181978 Ry
     estimated scf accuracy    <       0.00000039 Ry

     total magnetization       =    37.07 Bohr mag/cell
     absolute magnetization    =    39.37 Bohr mag/cell

     iteration # 17     ecut=    45.00 Ry     beta= 0.10
     Davidson diagonalization with overlap
     ethr =  1.62E-10,  avg # of iterations =  2.0

     negative rho (up, down):  0.000E+00 2.138E-03

     total cpu time spent up to now is     1381.5 secs

     total energy              =   -3716.29182142 Ry
     estimated scf accuracy    <       0.00000043 Ry

     total magnetization       =    37.07 Bohr mag/cell
     absolute magnetization    =    39.37 Bohr mag/cell

     iteration # 18     ecut=    45.00 Ry     beta= 0.10
     Davidson diagonalization with overlap
     ethr =  1.62E-10,  avg # of iterations =  3.4

     negative rho (up, down):  0.000E+00 2.137E-03

     total cpu time spent up to now is     1401.4 secs

     total energy              =   -3716.29182401 Ry
     estimated scf accuracy    <       0.00000012 Ry

     total magnetization       =    37.07 Bohr mag/cell
     absolute magnetization    =    39.36 Bohr mag/cell

     iteration # 19     ecut=    45.00 Ry     beta= 0.10
     Davidson diagonalization with overlap
     ethr =  5.13E-11,  avg # of iterations =  4.3

     negative rho (up, down):  0.000E+00 2.137E-03

     Magnetic moment per site  (integrated on atomic sphere of radius R)
     atom   1 (R=0.179)  charge= 14.4538  magn=  2.2540
     atom   2 (R=0.179)  charge= 14.4538  magn=  2.2540
     atom   3 (R=0.179)  charge= 14.4041  magn=  2.5572
     atom   4 (R=0.179)  charge= 14.4538  magn=  2.2540
     atom   5 (R=0.179)  charge= 14.4041  magn=  2.5572
     atom   6 (R=0.179)  charge= 14.4041  magn=  2.5572
     atom   7 (R=0.179)  charge= 14.3736  magn=  2.7355
     atom   8 (R=0.179)  charge= 14.3757  magn=  2.6034
     atom   9 (R=0.179)  charge= 14.3757  magn=  2.6034
     atom  10 (R=0.179)  charge= 14.3757  magn=  2.6034
     atom  11 (R=0.179)  charge= 14.3757  magn=  2.6034
     atom  12 (R=0.179)  charge= 14.3757  magn=  2.6034
     atom  13 (R=0.179)  charge= 14.3757  magn=  2.6034
     atom  14 (R=0.179)  charge= 14.3757  magn=  2.6034
     atom  15 (R=0.179)  charge= 14.3757  magn=  2.6034

     total cpu time spent up to now is     1423.4 secs

     End of self-consistent calculation

 ------ SPIN UP ------------


          k = 0.0000 0.0000 0.0000 (  6451 PWs)   bands (ev):

   -72.2218 -72.1491 -72.1224 -72.1224 -72.1224 -72.1176 -72.1176 -72.1176
   -72.1135 -72.1036 -72.1036 -72.0806 -71.6960 -71.6960 -71.6926 -38.3251
   -38.3251 -38.3251 -38.2434 -38.2356 -38.2356 -38.2356 -38.2050 -38.2050
   -38.2050 -38.1840 -38.1840 -38.1840 -38.1733 -38.1414 -38.1414 -38.1414
   -38.1072 -38.1072 -38.0780 -38.0780 -38.0780 -38.0746 -38.0746 -38.0746
   -38.0457 -38.0457 -38.0457 -38.0327 -38.0327 -38.0051 -38.0051 -38.0051
   -37.9864 -37.9864 -37.9864 -37.6930 -37.6930 -37.6930 -37.6586 -37.6586
   -37.6586 -37.6558 -37.6558 -37.6558   8.1627  11.4202  11.4914  11.4914
    11.5801  11.5801  11.6102  11.6102  11.6102  11.7827  11.7827  11.7827
    12.1437  12.1437  12.5593  12.8403  12.8403  12.8403  12.9277  12.9277
    12.9277  13.0143  13.0143  13.0143  13.2599  13.2599  13.2599  13.3572
    13.5746  13.5746  13.5746  13.8011  13.8011  13.9149  13.9149  13.9149
    14.1614  14.1614  14.1614  14.2439  14.2439  14.2439  14.3416  14.3416
    14.3416  14.7341  14.7341  14.7341  14.8000  14.9600  14.9600  15.1106
    15.1106  15.1540  15.1578  15.1578  15.1578  15.2225  15.2225  15.2411
    15.2411  15.2411  15.2647  15.2647  15.3380  15.3380  15.4026  15.6833
    15.6833  15.6833  16.1700  16.1700  16.2741  16.2741  16.2741  16.2856
    16.2856  16.2856  16.4560  16.4560  16.4560  16.7071  16.7071  16.7071

          k = 0.0000 0.0000 0.2500 (  6495 PWs)   bands (ev):

   -72.2216 -72.1468 -72.1291 -72.1218 -72.1218 -72.1185 -72.1185 -72.1172
   -72.1140 -72.1037 -72.0982 -72.0819 -71.6961 -71.6956 -71.6930 -38.3262
   -38.3259 -38.3259 -38.2467 -38.2364 -38.2343 -38.2343 -38.2129 -38.2129
   -38.1971 -38.1825 -38.1751 -38.1751 -38.1662 -38.1509 -38.1429 -38.1429
   -38.1272 -38.1209 -38.1155 -38.1155 -38.0804 -38.0804 -38.0650 -38.0520
   -38.0458 -38.0448 -38.0406 -38.0267 -38.0267 -38.0079 -37.9984 -37.9984
   -37.9856 -37.9856 -37.9814 -37.6934 -37.6910 -37.6910 -37.6661 -37.6661
   -37.6647 -37.6628 -37.6628 -37.6611   8.4622  10.6224  11.5395  11.5723
    11.6448  11.6609  11.6609  11.6939  11.7821  11.8667  11.8667  11.9101
    12.1970  12.2493  12.5626  12.7661  12.7834  12.7834  12.7883  12.8709
    12.9779  12.9779  13.0411  13.1733  13.1733  13.2590  13.2590  13.3857
    13.4281  13.7026  13.7026  13.7699  13.8391  13.8391  13.8965  13.9242
    13.9430  13.9430  14.0728  14.1954  14.1954  14.3942  14.4322  14.5115
    14.5793  14.5793  14.6787  14.6787  14.7154  14.7280  14.8574  14.8574
    14.9142  15.0003  15.0886  15.1195  15.1463  15.2114  15.2294  15.2349
    15.2349  15.2452  15.2579  15.2939  15.3194  15.3554  15.3554  15.3804
    15.4502  15.6238  15.6681  15.7077  15.7077  16.1848  16.1848  16.1850
    16.2465  16.3025  16.4110  16.4110  16.5785  16.7437  16.9355  16.9355

          k = 0.0000 0.0000-0.5000 (  6480 PWs)   bands (ev):

   -72.2214 -72.1406 -72.1383 -72.1206 -72.1206 -72.1196 -72.1196 -72.1161
   -72.1150 -72.1037 -72.0928 -72.0846 -71.6961 -71.6949 -71.6937 -38.3180
   -38.3180 -38.3177 -38.2553 -38.2303 -38.2303 -38.2212 -38.1972 -38.1972
   -38.1906 -38.1901 -38.1867 -38.1867 -38.1600 -38.1595 -38.1526 -38.1526
   -38.1420 -38.1351 -38.1254 -38.1254 -38.0920 -38.0920 -38.0578 -38.0534
   -38.0455 -38.0445 -38.0398 -38.0142 -38.0142 -38.0108 -37.9928 -37.9928
   -37.9777 -37.9777 -37.9735 -37.6921 -37.6828 -37.6828 -37.6756 -37.6756
   -37.6676 -37.6625 -37.6625 -37.6596   9.1971   9.5156  11.6531  11.6922
    11.7695  11.7695  11.8565  11.8896  11.8896  11.9808  11.9956  12.0971
    12.1430  12.2453  12.3846  12.4730  12.5112  12.7430  12.7430  12.7468
    13.0617  13.0617  13.3400  13.3400  13.3402  13.3555  13.4288  13.5133
    13.5133  13.6621  13.6621  13.6709  13.6987  13.6987  13.8083  13.8797
    13.8797  13.8956  13.9000  14.0544  14.0544  14.2134  14.3235  14.3235
    14.4648  14.4724  14.5514  14.5514  14.6291  14.6503  14.8004  14.8004
    14.8140  14.8880  14.9004  15.1777  15.1777  15.2025  15.2241  15.2264
    15.2375  15.2475  15.2711  15.2711  15.2928  15.3090  15.3212  15.3996
    15.6035  15.7901  15.7901  15.8147  15.8359  15.8359  15.8706  15.9595
    16.0465  16.3863  16.5698  16.5698  16.6488  16.7679  16.8202  16.8243

          k = 0.0000 0.2500 0.2500 (  6500 PWs)   bands (ev):

   -72.2214 -72.1445 -72.1300 -72.1255 -72.1211 -72.1202 -72.1179 -72.1179
   -72.1145 -72.0999 -72.0967 -72.0835 -71.6958 -71.6955 -71.6934 -38.3224
   -38.3208 -38.3198 -38.2512 -38.2350 -38.2306 -38.2245 -38.2148 -38.2097
   -38.1990 -38.1886 -38.1861 -38.1724 -38.1674 -38.1600 -38.1486 -38.1447
   -38.1329 -38.1260 -38.1197 -38.1021 -38.0803 -38.0785 -38.0725 -38.0547
   -38.0523 -38.0503 -38.0475 -38.0281 -38.0110 -38.0021 -38.0016 -37.9872
   -37.9859 -37.9850 -37.9846 -37.6921 -37.6866 -37.6862 -37.6708 -37.6686
   -37.6665 -37.6641 -37.6633 -37.6589   8.7617  10.7253  10.8942  11.4993
    11.7283  11.7681  11.8085  11.8386  11.8782  11.9826  12.0016  12.0429
    12.3061  12.3237  12.6126  12.6772  12.6788  12.8012  12.8875  12.9200
    12.9740  13.0100  13.0127  13.0906  13.1078  13.1227  13.2856  13.4188
    13.4802  13.5638  13.6540  13.6817  13.7735  13.7969  13.8029  13.8559
    13.8843  14.0203  14.0549  14.1730  14.2249  14.3674  14.4371  14.4492
    14.4922  14.4925  14.5133  14.5734  14.6072  14.6975  14.7541  14.7597
    14.7851  14.9188  14.9351  15.0283  15.0508  15.0876  15.1562  15.2055
    15.2152  15.2394  15.2416  15.2784  15.2840  15.3787  15.3900  15.4429
    15.5158  15.5353  15.5586  15.6268  15.6527  15.6839  15.6926  15.8198
    15.9020  15.9126  16.3242  16.6676  16.6986  17.7024  17.7854  17.9734

          k = 0.0000 0.2500-0.5000 (  6452 PWs)   bands (ev):

   -72.2211 -72.1389 -72.1370 -72.1248 -72.1223 -72.1200 -72.1190 -72.1166
   -72.1155 -72.0986 -72.0923 -72.0863 -71.6957 -71.6948 -71.6940 -38.3146
   -38.3128 -38.3119 -38.2558 -38.2418 -38.2218 -38.2163 -38.2029 -38.1965
   -38.1937 -38.1879 -38.1841 -38.1836 -38.1827 -38.1608 -38.1531 -38.1442
   -38.1299 -38.1248 -38.1183 -38.1066 -38.0861 -38.0845 -38.0616 -38.0560
   -38.0546 -38.0497 -38.0330 -38.0236 -38.0087 -37.9985 -37.9976 -37.9881
   -37.9863 -37.9818 -37.9772 -37.6866 -37.6779 -37.6771 -37.6731 -37.6727
   -37.6699 -37.6627 -37.6606 -37.6582   9.4713   9.7645  11.1224  11.3425
    11.8772  11.9808  12.0534  12.0831  12.0865  12.1131  12.1264  12.1967
    12.2520  12.3356  12.4571  12.4901  12.5833  12.7644  12.8372  12.8538
    13.0432  13.0910  13.1604  13.1737  13.2224  13.2769  13.2990  13.4130
    13.4358  13.5180  13.6245  13.6436  13.6703  13.7326  13.7421  13.7509
    13.8060  13.8837  13.8896  13.9626  14.0285  14.1061  14.1315  14.2411
    14.2651  14.4467  14.5835  14.5913  14.6174  14.6575  14.7841  14.8355
    14.8648  14.8833  14.8904  14.9128  14.9867  15.0304  15.0693  15.1483
    15.2160  15.2308  15.2379  15.2522  15.2965  15.3039  15.3453  15.3579
    15.4110  15.4660  15.5037  15.5728  15.5759  15.6282  15.6314  15.8073
    15.8901  16.1831  16.2062  17.1784  17.2338  17.2477  17.3734  18.8873

          k = 0.0000-0.5000-0.5000 (  6496 PWs)   bands (ev):

   -72.2210 -72.1353 -72.1353 -72.1310 -72.1245 -72.1189 -72.1179 -72.1179
   -72.1168 -72.0919 -72.0919 -72.0909 -71.6949 -71.6949 -71.6949 -38.3138
   -38.3062 -38.3062 -38.2591 -38.2568 -38.2114 -38.2114 -38.2091 -38.2049
   -38.2024 -38.1988 -38.1988 -38.1823 -38.1823 -38.1579 -38.1556 -38.1331
   -38.1296 -38.1296 -38.1158 -38.0766 -38.0747 -38.0747 -38.0710 -38.0681
   -38.0681 -38.0633 -38.0421 -38.0217 -38.0097 -38.0097 -38.0048 -38.0000
   -37.9861 -37.9844 -37.9844 -37.6815 -37.6757 -37.6748 -37.6748 -37.6736
   -37.6736 -37.6683 -37.6660 -37.6577  10.1953  10.2358  10.2358  10.7787
    12.1395  12.1438  12.1438  12.2923  12.3159  12.3182  12.3182  12.3296
    12.4360  12.4360  12.6270  12.6335  12.6925  12.6925  12.7740  12.7956
    12.9395  12.9662  12.9798  13.0023  13.0023  13.1321  13.1321  13.4077
    13.4724  13.4856  13.4856  13.5397  13.6143  13.6616  13.6782  13.6782
    13.7555  13.7555  13.7564  13.8285  13.8656  13.8656  14.0142  14.1724
    14.2396  14.3919  14.5012  14.5012  14.6637  14.7395  14.8127  14.8127
    14.8984  14.8984  14.9060  14.9216  14.9368  14.9950  14.9950  15.0338
    15.0338  15.0456  15.1035  15.1436  15.1989  15.2671  15.2671  15.2764
    15.2764  15.2871  15.3514  15.4438  15.4636  15.5589  15.5589  15.8779
    15.8779  16.2898  16.3104  17.9698  18.0695  18.0695  18.2733  18.2848

          k = 0.2500 0.2500 0.2500 (  6493 PWs)   bands (ev):

   -72.2212 -72.1424 -72.1289 -72.1289 -72.1223 -72.1193 -72.1193 -72.1181
   -72.1152 -72.0963 -72.0963 -72.0850 -71.6955 -71.6955 -71.6937 -38.3169
   -38.3140 -38.3140 -38.2536 -38.2299 -38.2231 -38.2231 -38.2194 -38.1991
   -38.1991 -38.1921 -38.1835 -38.1835 -38.1712 -38.1712 -38.1564 -38.1329
   -38.1283 -38.1283 -38.1110 -38.0937 -38.0937 -38.0846 -38.0846 -38.0670
   -38.0548 -38.0548 -38.0437 -38.0126 -38.0126 -38.0050 -37.9912 -37.9912
   -37.9850 -37.9850 -37.9815 -37.6907 -37.6829 -37.6829 -37.6749 -37.6683
   -37.6683 -37.6644 -37.6608 -37.6608   9.0542  10.9423  10.9423  11.1658
    11.6836  11.6836  11.8163  11.9869  11.9869  12.0916  12.1711  12.1711
    12.4706  12.4706  12.6318  12.6714  12.6744  12.8403  12.8403  12.9380
    12.9380  13.0061  13.0227  13.1209  13.1209  13.1971  13.1971  13.3833
    13.4675  13.4729  13.4729  13.5978  13.5978  13.6938  13.6938  13.8013
    13.8013  13.8656  13.8663  14.0588  14.0588  14.1165  14.2844  14.2844
    14.3424  14.3424  14.4836  14.6373  14.6503  14.6503  14.6691  14.8876
    14.8937  14.8937  14.9780  15.0311  15.0479  15.0479  15.1434  15.1434
    15.1797  15.2233  15.2233  15.2531  15.2531  15.2775  15.3034  15.3034
    15.4586  15.4874  15.4874  15.6469  15.6469  15.7149  15.8093  15.8093
    15.9614  15.9614  15.9820  16.7114  16.7114  16.7995  18.6556  18.6556

          k = 0.2500 0.2500-0.5000 (  6456 PWs)   bands (ev):

   -72.2210 -72.1373 -72.1357 -72.1273 -72.1220 -72.1211 -72.1194 -72.1177
   -72.1160 -72.0959 -72.0918 -72.0876 -71.6954 -71.6949 -71.6943 -38.3094
   -38.3088 -38.3067 -38.2543 -38.2370 -38.2300 -38.2089 -38.2086 -38.2003
   -38.1978 -38.1858 -38.1858 -38.1775 -38.1731 -38.1657 -38.1628 -38.1281
   -38.1272 -38.1244 -38.1069 -38.1021 -38.0989 -38.0808 -38.0731 -38.0711
   -38.0685 -38.0626 -38.0324 -38.0239 -38.0027 -37.9920 -37.9914 -37.9897
   -37.9885 -37.9818 -37.9773 -37.6857 -37.6810 -37.6764 -37.6754 -37.6711
   -37.6691 -37.6640 -37.6614 -37.6585   9.7480  10.0202  11.3439  11.3816
    11.4618  11.6958  12.1934  12.2471  12.2538  12.2740  12.2880  12.2950
    12.3367  12.4587  12.4788  12.5807  12.6824  12.8124  12.8409  12.9467
    13.0368  13.0636  13.0949  13.1479  13.1583  13.2345  13.2624  13.2878
    13.3251  13.4020  13.5326  13.5381  13.5624  13.5901  13.5980  13.6335
    13.6444  13.6456  13.6458  13.7039  13.8173  13.9367  13.9420  14.0637
    14.1622  14.3291  14.4621  14.5089  14.7250  14.8079  14.8194  14.8667
    14.8930  14.8994  14.9050  14.9306  14.9599  15.1128  15.1225  15.1915
    15.1918  15.2059  15.2167  15.2615  15.2907  15.3119  15.3303  15.3323
    15.3580  15.5050  15.5253  15.5603  15.6034  15.8219  15.9332  15.9376
    15.9786  16.0052  16.0147  16.1545  16.1691  17.8333  18.0736  19.3857

          k = 0.2500-0.5000-0.5000 (  6472 PWs)   bands (ev):

   -72.2208 -72.1340 -72.1340 -72.1317 -72.1237 -72.1197 -72.1196 -72.1196
   -72.1163 -72.0913 -72.0913 -72.0908 -71.6949 -71.6949 -71.6949 -38.3052
   -38.3006 -38.3006 -38.2526 -38.2439 -38.2172 -38.2172 -38.2117 -38.1961
   -38.1948 -38.1937 -38.1937 -38.1754 -38.1676 -38.1676 -38.1533 -38.1285
   -38.1285 -38.1214 -38.1086 -38.0916 -38.0881 -38.0843 -38.0843 -38.0822
   -38.0770 -38.0770 -38.0517 -38.0087 -38.0043 -38.0043 -37.9916 -37.9877
   -37.9830 -37.9798 -37.9798 -37.6821 -37.6818 -37.6799 -37.6799 -37.6695
   -37.6695 -37.6679 -37.6619 -37.6598  10.4564  10.5073  10.5073  10.9907
    11.8509  11.9993  11.9993  12.3319  12.3450  12.3450  12.3641  12.6429
    12.6563  12.6563  12.6719  12.7581  12.7581  12.7977  12.8080  12.8571
    12.8637  12.9847  12.9847  13.0084  13.0699  13.0755  13.0755  13.2646
    13.2885  13.2885  13.3339  13.3460  13.4000  13.4560  13.4560  13.4929
    13.5003  13.5003  13.5492  13.6479  13.6479  13.6988  13.7409  13.7625
    13.9036  14.3282  14.3282  14.3802  14.8636  14.9526  14.9526  14.9533
    15.0077  15.0135  15.0242  15.0242  15.0961  15.1390  15.1390  15.1858
    15.2136  15.2317  15.2590  15.2590  15.2651  15.2892  15.2892  15.3687
    15.3687  15.3693  15.4290  15.5272  15.5272  15.5286  15.5782  15.7837
    15.7837  16.0278  16.0515  16.8228  16.8985  16.8985  17.0649  20.3270

          k =-0.5000-0.5000-0.5000 (  6488 PWs)   bands (ev):

   -72.2207 -72.1326 -72.1326 -72.1326 -72.1217 -72.1217 -72.1217 -72.1216
   -72.1158 -72.0906 -72.0906 -72.0906 -71.6948 -71.6948 -71.6948 -38.2938
   -38.2938 -38.2938 -38.2524 -38.2258 -38.2225 -38.2225 -38.2225 -38.1837
   -38.1837 -38.1836 -38.1836 -38.1836 -38.1556 -38.1556 -38.1556 -38.1361
   -38.1361 -38.1361 -38.1040 -38.1040 -38.0963 -38.0963 -38.0963 -38.0854
   -38.0854 -38.0854 -38.0630 -37.9961 -37.9961 -37.9961 -37.9864 -37.9864
   -37.9826 -37.9826 -37.9826 -37.6836 -37.6817 -37.6817 -37.6817 -37.6715
   -37.6715 -37.6715 -37.6635 -37.6635  11.1084  11.1557  11.1557  11.1557
    11.3064  11.3064  11.3064  12.2313  12.7567  12.7567  12.7567  12.7671
    12.7671  12.7671  12.7956  12.7956  12.8276  12.8276  12.8276  12.9460
    12.9460  12.9460  13.0262  13.0262  13.1330  13.1330  13.1330  13.1413
    13.1413  13.1413  13.2205  13.2205  13.2205  13.2516  13.2516  13.2516
    13.2685  13.2685  13.2685  13.2735  13.2773  13.2968  13.2968  13.7285
    13.7285  14.2765  14.2765  14.2765  14.9891  14.9891  15.0263  15.0263
    15.0263  15.0694  15.0694  15.0694  15.1470  15.1470  15.1470  15.2319
    15.2319  15.2319  15.3061  15.3061  15.4716  15.4716  15.4716  15.4802
    15.4802  15.4802  15.6424  15.6424  15.6424  15.6757  15.6757  15.8607
    15.8607  15.8607  16.0145  16.1932  16.1932  16.1932  16.2322  22.6240

 ------ SPIN DOWN ----------


          k = 0.0000 0.0000 0.0000 (  6451 PWs)   bands (ev):

   -68.9332 -68.8923 -68.8923 -68.8699 -68.8635 -68.8635 -68.8635 -68.8583
   -68.8583 -68.8583 -68.8533 -68.8520 -68.8520 -68.8160 -68.7833 -35.2121
   -35.2121 -35.2121 -35.1580 -35.1580 -35.1580 -35.0591 -35.0591 -35.0591
   -35.0293 -35.0293 -35.0143 -35.0143 -35.0143 -35.0046 -35.0046 -35.0046
   -34.9744 -34.9744 -34.9744 -34.9652 -34.9565 -34.9565 -34.9565 -34.9542
   -34.9542 -34.9542 -34.9426 -34.9426 -34.9081 -34.9081 -34.9081 -34.9051
   -34.9051 -34.9051 -34.8834 -34.7938 -34.7938 -34.7938 -34.7921 -34.7921
   -34.7921 -34.7849 -34.7849 -34.7849   8.3107  12.3115  12.3115  12.4257
    12.4257  12.4257  12.5682  13.0506  13.0506  13.1083  13.1083  13.1083
    13.8196  13.8874  13.8874  14.7658  14.7658  14.7658  14.8248  14.8248
    14.8248  14.9927  14.9927  14.9927  15.5493  15.5493  15.5493  15.7142
    15.7393  15.7393  15.7393  16.2836  16.2836  16.3919  16.3919  16.3919
    16.4774  16.4774  16.4774  16.5530  16.5530  16.5530  16.6389  16.6389
    16.6389  16.8423  16.8423  16.8423  17.2478  17.2478  17.2478  17.4961
    17.4961  17.5709  17.5709  17.5709  17.8120  17.9337  17.9337  17.9337
    18.1023  18.1023  18.1405  18.2338  18.2338  18.3956  18.3956  18.3962
    18.3962  18.3962  18.4104  18.4104  18.4222  18.6572  18.6572  18.6572
    18.8349  18.8349  18.9974  18.9974  18.9974  19.0069  19.0069  19.0069

          k = 0.0000 0.0000 0.2500 (  6495 PWs)   bands (ev):

   -68.9286 -68.8996 -68.8922 -68.8740 -68.8650 -68.8628 -68.8628 -68.8591
   -68.8591 -68.8576 -68.8540 -68.8521 -68.8412 -68.8180 -68.7839 -35.2052
   -35.2052 -35.2044 -35.1498 -35.1484 -35.1484 -35.0835 -35.0835 -35.0779
   -35.0776 -35.0531 -35.0531 -35.0494 -35.0259 -35.0259 -35.0073 -34.9872
   -34.9763 -34.9763 -34.9564 -34.9560 -34.9558 -34.9504 -34.9279 -34.9279
   -34.9251 -34.9251 -34.9250 -34.9094 -34.9039 -34.9018 -34.9010 -34.9010
   -34.8924 -34.8785 -34.8785 -34.8224 -34.8124 -34.8124 -34.8104 -34.8099
   -34.8099 -34.7978 -34.7978 -34.7967   8.6147  10.8986  12.4712  12.5923
    12.5923  12.6313  13.0582  13.0778  13.0778  13.1184  13.3087  13.4436
    13.8973  14.0133  14.0214  14.5473  14.5690  14.7548  14.7548  15.0082
    15.0082  15.0632  15.0632  15.0781  15.1240  15.4391  15.4391  15.5615
    15.6120  15.7219  15.7219  16.0816  16.0990  16.0990  16.1222  16.1415
    16.2281  16.2281  16.3128  16.3162  16.3162  16.5291  16.5291  16.6129
    16.7266  16.8704  16.9172  16.9172  17.0450  17.1322  17.1322  17.3441
    17.5710  17.5710  17.6419  17.9210  17.9267  17.9534  17.9534  17.9805
    18.0064  18.0829  18.1374  18.1461  18.2989  18.3513  18.3844  18.4006
    18.4079  18.4525  18.4525  18.5522  18.6510  18.6662  18.7819  18.7819
    18.7854  18.8766  18.8807  18.8807  18.8969  18.9879  19.0437  19.0437

          k = 0.0000 0.0000-0.5000 (  6480 PWs)   bands (ev):

   -68.9180 -68.9131 -68.8922 -68.8758 -68.8652 -68.8615 -68.8615 -68.8604
   -68.8604 -68.8564 -68.8553 -68.8522 -68.8316 -68.8220 -68.7846 -35.1563
   -35.1563 -35.1534 -35.1534 -35.1513 -35.1476 -35.1187 -35.1136 -35.1136
   -35.1123 -35.0936 -35.0936 -35.0621 -35.0225 -35.0225 -35.0151 -34.9960
   -34.9960 -34.9742 -34.9681 -34.9559 -34.9546 -34.9502 -34.9284 -34.9284
   -34.9000 -34.8999 -34.8906 -34.8783 -34.8783 -34.8768 -34.8708 -34.8708
   -34.8679 -34.8614 -34.8482 -34.8482 -34.8421 -34.8421 -34.8317 -34.8291
   -34.8291 -34.8035 -34.8035 -34.8026   9.3650   9.6934  12.6906  12.7716
    12.9080  12.9080  12.9289  12.9289  13.0399  13.3060  13.7228  13.7271
    13.9575  14.1094  14.1427  14.2092  14.2200  14.7225  14.7755  14.7755
    15.0127  15.0127  15.4465  15.4465  15.4547  15.4619  15.4820  15.4820
    15.5081  15.5081  15.5670  15.5744  15.6380  15.6392  15.6392  15.9691
    15.9691  15.9840  16.0154  16.0154  16.1805  16.2945  16.3441  16.3441
    16.7256  17.0319  17.0319  17.3434  17.4292  17.4742  17.4742  17.5391
    17.5608  17.6478  17.7027  17.7027  17.7513  17.8761  17.8761  17.9918
    18.2502  18.2509  18.2632  18.3507  18.3552  18.3552  18.3644  18.3801
    18.4038  18.4164  18.4784  18.5046  18.5390  18.5762  18.5762  18.6062
    18.7192  18.7547  18.8546  18.9775  18.9775  19.0000  19.0962  19.0962

          k = 0.0000 0.2500 0.2500 (  6500 PWs)   bands (ev):

   -68.9243 -68.9006 -68.8960 -68.8766 -68.8686 -68.8652 -68.8621 -68.8584
   -68.8584 -68.8577 -68.8547 -68.8445 -68.8386 -68.8200 -68.7844 -35.1993
   -35.1905 -35.1816 -35.1482 -35.1358 -35.1261 -35.1199 -35.1126 -35.1032
   -35.0920 -35.0612 -35.0517 -35.0351 -35.0261 -35.0062 -35.0026 -34.9904
   -34.9865 -34.9821 -34.9814 -34.9622 -34.9614 -34.9610 -34.9433 -34.9386
   -34.9373 -34.9317 -34.9060 -34.9060 -34.8981 -34.8937 -34.8830 -34.8812
   -34.8639 -34.8606 -34.8551 -34.8433 -34.8315 -34.8207 -34.8166 -34.8158
   -34.8002 -34.7981 -34.7964 -34.7951   8.9186  11.0309  11.2425  12.5274
    12.7389  12.7772  13.2221  13.2855  13.3175  13.4348  13.5169  13.6204
    14.0036  14.0717  14.1633  14.4653  14.5145  14.8169  14.8390  14.9367
    14.9391  15.0360  15.0377  15.0827  15.1357  15.1591  15.2730  15.5541
    15.5801  15.6378  15.6659  15.7957  15.8129  15.8403  15.9237  15.9410
    15.9829  16.0866  16.1824  16.2004  16.2849  16.3683  16.3720  16.5219
    16.7508  16.8577  16.8758  17.1222  17.1268  17.2801  17.2830  17.3569
    17.3864  17.5199  17.6148  17.8488  17.9208  17.9740  18.0123  18.0455
    18.0532  18.1715  18.1818  18.2262  18.2381  18.2901  18.3027  18.3079
    18.3684  18.3861  18.4208  18.4441  18.4741  18.5233  18.5326  18.5888
    18.6171  18.7454  19.0197  19.0568  19.1627  19.5943  19.6867  19.8264

          k = 0.0000 0.2500-0.5000 (  6452 PWs)   bands (ev):

   -68.9147 -68.9107 -68.8963 -68.8788 -68.8684 -68.8679 -68.8608 -68.8597
   -68.8571 -68.8566 -68.8560 -68.8426 -68.8309 -68.8244 -68.7848 -35.1657
   -35.1624 -35.1503 -35.1488 -35.1404 -35.1366 -35.1354 -35.1319 -35.1097
   -35.0888 -35.0703 -35.0633 -35.0396 -35.0303 -35.0222 -35.0083 -34.9909
   -34.9908 -34.9758 -34.9708 -34.9670 -34.9569 -34.9484 -34.9482 -34.9345
   -34.9291 -34.9271 -34.9043 -34.9042 -34.9016 -34.8892 -34.8703 -34.8642
   -34.8446 -34.8414 -34.8414 -34.8402 -34.8383 -34.8272 -34.8271 -34.8104
   -34.8080 -34.8014 -34.7985 -34.7971   9.6512   9.9596  11.6258  11.9552
    12.9659  13.1152  13.1664  13.3493  13.6865  13.7552  13.7850  13.7888
    14.0267  14.0725  14.2471  14.2640  14.2973  14.7173  14.8566  14.8755
    14.9952  15.0278  15.0822  15.1471  15.2355  15.2435  15.3005  15.3332
    15.4006  15.4953  15.5684  15.5695  15.5773  15.7078  15.7187  15.7271
    15.7744  15.9145  15.9765  16.0643  16.0805  16.1111  16.1969  16.5789
    16.6621  16.9723  17.1997  17.3210  17.3278  17.3890  17.4286  17.4547
    17.5617  17.5948  17.6178  17.6430  17.6650  17.7305  17.8440  18.0050
    18.0325  18.0994  18.1703  18.2078  18.2704  18.2940  18.3280  18.3576
    18.3783  18.4239  18.4314  18.4341  18.4478  18.4482  18.4815  18.6970
    18.7020  18.8429  18.8784  19.3715  19.3981  19.4533  19.5220  20.3888

          k = 0.0000-0.5000-0.5000 (  6496 PWs)   bands (ev):

   -68.9076 -68.9076 -68.9045 -68.8838 -68.8700 -68.8700 -68.8595 -68.8584
   -68.8584 -68.8573 -68.8547 -68.8330 -68.8302 -68.8302 -68.7851 -35.1639
   -35.1544 -35.1544 -35.1536 -35.1476 -35.1476 -35.1399 -35.1337 -35.1080
   -35.0845 -35.0272 -35.0272 -35.0248 -35.0248 -35.0032 -35.0032 -34.9996
   -34.9875 -34.9873 -34.9805 -34.9777 -34.9744 -34.9725 -34.9688 -34.9688
   -34.9472 -34.9437 -34.9437 -34.9268 -34.9142 -34.8750 -34.8669 -34.8669
   -34.8406 -34.8406 -34.8383 -34.8383 -34.8309 -34.8288 -34.8232 -34.8029
   -34.7989 -34.7971 -34.7971 -34.7931  10.4306  10.4960  10.4960  11.1003
    13.4529  13.4547  13.5407  13.5407  13.6865  13.6865  13.7337  14.0348
    14.0348  14.1171  14.3527  14.4965  14.5910  14.5910  14.6459  14.7494
    14.8288  14.9251  14.9449  15.0371  15.0371  15.1201  15.1201  15.3627
    15.3813  15.3813  15.4211  15.4427  15.4427  15.5499  15.6364  15.6398
    15.6936  15.7450  16.0205  16.0310  16.0310  16.2379  16.2379  16.5396
    16.6993  16.8889  16.9969  16.9969  17.2635  17.2635  17.2964  17.5988
    17.5991  17.6991  17.7309  17.7343  17.7343  17.8065  17.8065  17.8135
    17.9422  17.9422  17.9874  18.0820  18.1304  18.2198  18.2456  18.2456
    18.3066  18.3066  18.3467  18.4206  18.4206  18.4219  18.4430  18.7736
    18.7736  18.9756  18.9961  19.9175  20.1340  20.1340  20.1933  20.3104

          k = 0.2500 0.2500 0.2500 (  6493 PWs)   bands (ev):

   -68.9204 -68.8995 -68.8995 -68.8777 -68.8720 -68.8720 -68.8598 -68.8589
   -68.8560 -68.8560 -68.8544 -68.8387 -68.8387 -68.8220 -68.7847 -35.1858
   -35.1688 -35.1688 -35.1329 -35.1329 -35.1287 -35.1287 -35.1242 -35.1140
   -35.0638 -35.0638 -35.0495 -35.0495 -35.0292 -35.0268 -35.0268 -35.0200
   -35.0072 -34.9893 -34.9765 -34.9765 -34.9499 -34.9499 -34.9225 -34.9219
   -34.9219 -34.9173 -34.9173 -34.9020 -34.9015 -34.8991 -34.8991 -34.8881
   -34.8536 -34.8456 -34.8418 -34.8418 -34.8277 -34.8277 -34.8157 -34.8071
   -34.8071 -34.8009 -34.8009 -34.8004   9.2164  11.2806  11.2806  11.5828
    12.7075  12.7075  12.9515  13.6712  13.6712  13.6872  13.7802  13.7802
    14.1791  14.1909  14.1909  14.3089  14.5447  14.7811  14.8312  14.8312
    14.9748  14.9748  15.0721  15.1011  15.1011  15.1900  15.1900  15.4731
    15.5563  15.5635  15.5635  15.5884  15.5884  15.6918  15.7663  15.7663
    15.8503  15.8737  15.8737  16.0926  16.0926  16.2096  16.2096  16.4067
    16.6866  16.9092  16.9092  17.2569  17.3199  17.3406  17.4754  17.4754
    17.5578  17.5578  17.6031  17.8275  17.8275  17.9295  17.9974  18.0041
    18.0041  18.1606  18.1606  18.2650  18.2806  18.2806  18.3126  18.3126
    18.3423  18.3859  18.3859  18.4650  18.4650  18.5755  18.5755  18.5870
    18.6304  18.6304  18.6609  19.0518  19.0518  19.1129  20.3832  20.3832

          k = 0.2500 0.2500-0.5000 (  6456 PWs)   bands (ev):

   -68.9118 -68.9085 -68.8982 -68.8792 -68.8748 -68.8735 -68.8600 -68.8600
   -68.8549 -68.8543 -68.8538 -68.8388 -68.8309 -68.8263 -68.7849 -35.1601
   -35.1582 -35.1506 -35.1453 -35.1302 -35.1267 -35.1251 -35.1243 -35.0846
   -35.0834 -35.0813 -35.0636 -35.0418 -35.0402 -35.0362 -35.0254 -35.0108
   -34.9961 -34.9908 -34.9855 -34.9823 -34.9610 -34.9562 -34.9444 -34.9226
   -34.9223 -34.9052 -34.9007 -34.8996 -34.8968 -34.8784 -34.8743 -34.8700
   -34.8621 -34.8544 -34.8383 -34.8375 -34.8334 -34.8210 -34.8160 -34.8144
   -34.8068 -34.8022 -34.8018 -34.7997   9.9371  10.2282  11.8433  11.9145
    12.0403  12.3673  13.3017  13.6819  13.8895  13.9027  13.9774  14.0569
    14.0571  14.2173  14.3110  14.4042  14.4670  14.7524  14.9124  14.9247
    14.9414  14.9944  15.0158  15.0772  15.1036  15.1421  15.1998  15.2090
    15.3136  15.4369  15.5076  15.5097  15.5215  15.5556  15.6215  15.6618
    15.6869  15.7832  15.8430  15.8722  15.9230  15.9785  16.0045  16.4418
    16.5496  16.9883  17.0089  17.0762  17.4482  17.4639  17.5014  17.5331
    17.7221  17.7317  17.7385  17.7714  17.8051  17.8981  17.9196  18.1001
    18.1140  18.1701  18.1890  18.2196  18.2306  18.2573  18.3378  18.3401
    18.3562  18.3756  18.3832  18.4395  18.4599  18.4839  18.5812  18.5861
    18.5971  18.5995  18.6479  18.6761  18.7379  19.9251  20.1314  20.9563

          k = 0.2500-0.5000-0.5000 (  6472 PWs)   bands (ev):

   -68.9056 -68.9056 -68.9037 -68.8829 -68.8765 -68.8765 -68.8615 -68.8610
   -68.8531 -68.8531 -68.8512 -68.8324 -68.8309 -68.8309 -68.7850 -35.1477
   -35.1423 -35.1423 -35.1381 -35.1264 -35.1264 -35.1244 -35.1199 -35.0929
   -35.0828 -35.0560 -35.0560 -35.0466 -35.0421 -35.0345 -35.0345 -35.0251
   -35.0180 -35.0180 -35.0086 -34.9923 -34.9533 -34.9533 -34.9455 -34.9129
   -34.9102 -34.9102 -34.9101 -34.9034 -34.8957 -34.8720 -34.8720 -34.8706
   -34.8536 -34.8536 -34.8412 -34.8333 -34.8317 -34.8317 -34.8247 -34.8146
   -34.8081 -34.8040 -34.8040 -34.8030  10.6996  10.7741  10.7741  11.3156
    12.4670  12.6283  12.6283  13.2693  14.2236  14.2236  14.2473  14.3170
    14.3434  14.3434  14.5415  14.6432  14.6524  14.6592  14.6592  14.7451
    14.8437  14.9460  14.9460  15.0111  15.0928  15.1307  15.1307  15.2033
    15.2894  15.2894  15.3272  15.3958  15.3958  15.4415  15.5153  15.5340
    15.5978  15.7400  15.7400  15.7985  15.8601  15.8955  15.8955  15.9402
    16.1946  16.9781  16.9781  17.0705  17.7021  17.7067  17.7067  17.7677
    17.7852  17.8698  17.8958  17.8958  17.9061  17.9061  17.9386  17.9908
    18.0211  18.0211  18.0605  18.1007  18.1955  18.2172  18.2199  18.2199
    18.2943  18.3090  18.3090  18.3406  18.3727  18.3727  18.4003  18.5987
    18.5987  18.6228  18.6877  19.2051  19.2272  19.2272  19.3537  21.8601

          k =-0.5000-0.5000-0.5000 (  6488 PWs)   bands (ev):

   -68.9030 -68.9030 -68.9030 -68.8819 -68.8819 -68.8819 -68.8640 -68.8626
   -68.8495 -68.8495 -68.8495 -68.8317 -68.8317 -68.8317 -68.7849 -35.1076
   -35.1076 -35.1076 -35.0983 -35.0983 -35.0965 -35.0965 -35.0965 -35.0941
   -35.0941 -35.0902 -35.0902 -35.0902 -35.0829 -35.0829 -35.0829 -35.0561
   -35.0364 -35.0101 -35.0101 -35.0101 -34.9419 -34.9419 -34.9419 -34.8781
   -34.8781 -34.8781 -34.8767 -34.8767 -34.8767 -34.8729 -34.8729 -34.8678
   -34.8678 -34.8678 -34.8570 -34.8426 -34.8426 -34.8426 -34.8367 -34.8331
   -34.8331 -34.8101 -34.8101 -34.8101  11.4232  11.4627  11.4627  11.4627
    11.6490  11.6490  11.6490  12.7449  14.6267  14.6267  14.6267  14.6506
    14.6506  14.6506  14.6666  14.6666  14.7125  14.7125  14.7125  14.9379
    14.9379  14.9379  15.1188  15.1188  15.1188  15.1317  15.1317  15.2759
    15.2759  15.2759  15.2782  15.2782  15.2782  15.2889  15.3109  15.3109
    15.3109  15.3242  15.3242  15.4707  15.5476  15.5476  15.5476  15.8441
    15.8441  17.0024  17.0024  17.0024  18.0227  18.0227  18.0227  18.0426
    18.0426  18.0500  18.0500  18.0814  18.0814  18.0814  18.0905  18.0905
    18.0905  18.1787  18.1787  18.1787  18.1952  18.1952  18.1952  18.2200
    18.2200  18.2200  18.2716  18.2716  18.3610  18.3610  18.3610  18.4025
    18.4025  18.4025  18.5517  18.6201  18.6201  18.6201  18.7880  23.7697

     the Fermi energy is    16.2275 ev

!    total energy              =   -3716.29184081 Ry
     estimated scf accuracy    <       0.00000003 Ry
     smearing contrib. (-TS)   =       0.01618278 Ry
     internal energy E=F+TS    =   -3716.30802359 Ry

     The total energy is F=E-TS. E is the sum of the following terms:
     one-electron contribution =   -1879.07690826 Ry
     hartree contribution      =    1064.28671484 Ry
     xc contribution           =    -416.19742987 Ry
     ewald contribution        =   -2485.32040030 Ry

     total magnetization       =    37.06 Bohr mag/cell
     absolute magnetization    =    39.36 Bohr mag/cell

     convergence has been achieved in  19 iterations

     negative rho (up, down):  0.000E+00 2.137E-03

     Forces acting on atoms (cartesian axes, Ry/au):

     atom    1 type  1   force =     0.00000000    0.00000000    0.00000000
     atom    2 type  1   force =     0.00000000    0.00000000    0.00000000
     atom    3 type  1   force =     0.00000000    0.00000000    0.00000000
     atom    4 type  1   force =     0.00000000    0.00000000    0.00000000
     atom    5 type  1   force =     0.00000000    0.00000000    0.00000000
     atom    6 type  1   force =     0.00000000    0.00000000    0.00000000
     atom    7 type  1   force =     0.00000000    0.00000000    0.00000000
     atom    8 type  1   force =    -0.00694534   -0.00694534   -0.00694534
     atom    9 type  1   force =     0.00694534   -0.00694534   -0.00694534
     atom   10 type  1   force =    -0.00694534    0.00694534   -0.00694534
     atom   11 type  1   force =     0.00694534    0.00694534   -0.00694534
     atom   12 type  1   force =    -0.00694534   -0.00694534    0.00694534
     atom   13 type  1   force =     0.00694534   -0.00694534    0.00694534
     atom   14 type  1   force =    -0.00694534    0.00694534    0.00694534
     atom   15 type  1   force =     0.00694534    0.00694534    0.00694534

     Total force =     0.034025     Total SCF correction =     0.000242
     Energy error            =      3.8E-03 Ry
     Gradient error          =      6.9E-03 Ry/Bohr

     number of scf cycles    =   4
     number of bfgs steps    =   3

     energy             old  =   -3716.2880418485 Ry
     energy             new  =   -3716.2918408096 Ry

     CASE: energy            _new < energy            _old

     new trust radius        =       0.0518733280 bohr
     new conv_thr            =       0.0000000695 Ry


ATOMIC_POSITIONS (crystal)
Fe               0.5000000000        0.0000000000        0.0000000000
Fe               0.0000000000        0.5000000000        0.0000000000
Fe               0.5000000000        0.5000000000        0.0000000000
Fe               0.0000000000        0.0000000000        0.5000000000
Fe               0.5000000000        0.0000000000        0.5000000000
Fe               0.0000000000        0.5000000000        0.5000000000
Fe               0.5000000000        0.5000000000        0.5000000000
Fe               0.2430459312        0.2430459312        0.2430459312
Fe               0.7569540688        0.2430459312        0.2430459312
Fe               0.2430459312        0.7569540688        0.2430459312
Fe               0.7569540688        0.7569540688        0.2430459312
Fe               0.2430459312        0.2430459312        0.7569540688
Fe               0.7569540688        0.2430459312        0.7569540688
Fe               0.2430459312        0.7569540688        0.7569540688
Fe               0.7569540688        0.7569540688        0.7569540688



     Writing config-only to output data dir ./outdir/fe15_vacancy.save/ :
     XML data file
     NEW-OLD atomic charge density approx. for the potential

     Check: negative core charge=   -0.000004

     negative rho (up, down):  0.000E+00 2.137E-03
     Generating pointlists ...

     total cpu time spent up to now is     1426.6 secs

     per-process dynamical memory:   152.1 Mb

     Self-consistent Calculation

     iteration #  1     ecut=    45.00 Ry     beta= 0.10
     Davidson diagonalization with overlap
     ethr =  1.00E-06,  avg # of iterations =  9.4

     negative rho (up, down):  0.000E+00 2.142E-03

     total cpu time spent up to now is     1476.3 secs

     total energy              =   -3716.29516556 Ry
     estimated scf accuracy    <       0.03433877 Ry

     total magnetization       =    37.23 Bohr mag/cell
     absolute magnetization    =    39.56 Bohr mag/cell

     iteration #  2     ecut=    45.00 Ry     beta= 0.10
     Davidson diagonalization with overlap
     ethr =  1.43E-05,  avg # of iterations =  1.0

     negative rho (up, down):  0.000E+00 2.148E-03

     total cpu time spent up to now is     1490.4 secs

     total energy              =   -3716.29474862 Ry
     estimated scf accuracy    <       0.01620122 Ry

     total magnetization       =    37.17 Bohr mag/cell
     absolute magnetization    =    39.51 Bohr mag/cell

     iteration #  3     ecut=    45.00 Ry     beta= 0.10
     Davidson diagonalization with overlap
     ethr =  6.75E-06,  avg # of iterations =  1.3

     negative rho (up, down):  0.000E+00 2.143E-03

     total cpu time spent up to now is     1504.9 secs

     total energy              =   -3716.29486798 Ry
     estimated scf accuracy    <       0.00309225 Ry

     total magnetization       =    37.07 Bohr mag/cell
     absolute magnetization    =    39.42 Bohr mag/cell

     iteration #  4     ecut=    45.00 Ry     beta= 0.10
     Davidson diagonalization with overlap
     ethr =  1.29E-06,  avg # of iterations =  2.4

     negative rho (up, down):  0.000E+00 2.145E-03

     total cpu time spent up to now is     1522.3 secs

     total energy              =   -3716.29482306 Ry
     estimated scf accuracy    <       0.00249726 Ry

     total magnetization       =    37.13 Bohr mag/cell
     absolute magnetization    =    39.48 Bohr mag/cell

     iteration #  5     ecut=    45.00 Ry     beta= 0.10
     Davidson diagonalization with overlap
     ethr =  1.04E-06,  avg # of iterations =  2.5

     negative rho (up, down):  0.000E+00 2.141E-03

     total cpu time spent up to now is     1538.5 secs

     total energy              =   -3716.29518037 Ry
     estimated scf accuracy    <       0.00032295 Ry

     total magnetization       =    37.07 Bohr mag/cell
     absolute magnetization    =    39.42 Bohr mag/cell

     iteration #  6     ecut=    45.00 Ry     beta= 0.10
     Davidson diagonalization with overlap
     ethr =  1.35E-07,  avg # of iterations =  3.2

     negative rho (up, down):  0.000E+00 2.139E-03

     total cpu time spent up to now is     1555.3 secs

     total energy              =   -3716.29524471 Ry
     estimated scf accuracy    <       0.00002581 Ry

     total magnetization       =    37.08 Bohr mag/cell
     absolute magnetization    =    39.43 Bohr mag/cell

     iteration #  7     ecut=    45.00 Ry     beta= 0.10
     Davidson diagonalization with overlap
     ethr =  1.08E-08,  avg # of iterations =  4.8

     negative rho (up, down):  0.000E+00 2.138E-03

     total cpu time spent up to now is     1576.3 secs

     total energy              =   -3716.29532451 Ry
     estimated scf accuracy    <       0.00006894 Ry

     total magnetization       =    37.08 Bohr mag/cell
     absolute magnetization    =    39.43 Bohr mag/cell

     iteration #  8     ecut=    45.00 Ry     beta= 0.10
     Davidson diagonalization with overlap
     ethr =  1.08E-08,  avg # of iterations =  2.0

     negative rho (up, down):  0.000E+00 2.136E-03

     total cpu time spent up to now is     1592.8 secs

     total energy              =   -3716.29536296 Ry
     estimated scf accuracy    <       0.00001753 Ry

     total magnetization       =    37.07 Bohr mag/cell
     absolute magnetization    =    39.42 Bohr mag/cell

     iteration #  9     ecut=    45.00 Ry     beta= 0.10
     Davidson diagonalization with overlap
     ethr =  7.30E-09,  avg # of iterations =  2.2

     negative rho (up, down):  0.000E+00 2.135E-03

     total cpu time spent up to now is     1609.3 secs

     total energy              =   -3716.29539375 Ry
     estimated scf accuracy    <       0.00002655 Ry

     total magnetization       =    37.07 Bohr mag/cell
     absolute magnetization    =    39.42 Bohr mag/cell

     iteration # 10     ecut=    45.00 Ry     beta= 0.10
     Davidson diagonalization with overlap
     ethr =  7.30E-09,  avg # of iterations =  1.9

     negative rho (up, down):  0.000E+00 2.134E-03

     total cpu time spent up to now is     1625.5 secs

     total energy              =   -3716.29542983 Ry
     estimated scf accuracy    <       0.00000866 Ry

     total magnetization       =    37.07 Bohr mag/cell
     absolute magnetization    =    39.42 Bohr mag/cell

     iteration # 11     ecut=    45.00 Ry     beta= 0.10
     Davidson diagonalization with overlap
     ethr =  3.61E-09,  avg # of iterations =  2.2

     negative rho (up, down):  0.000E+00 2.133E-03

     total cpu time spent up to now is     1642.4 secs

     total energy              =   -3716.29545200 Ry
     estimated scf accuracy    <       0.00000558 Ry

     total magnetization       =    37.06 Bohr mag/cell
     absolute magnetization    =    39.41 Bohr mag/cell

     iteration # 12     ecut=    45.00 Ry     beta= 0.10
     Davidson diagonalization with overlap
     ethr =  2.32E-09,  avg # of iterations =  1.8

     negative rho (up, down):  0.000E+00 2.131E-03

     total cpu time spent up to now is     1658.0 secs

     total energy              =   -3716.29546208 Ry
     estimated scf accuracy    <       0.00000303 Ry

     total magnetization       =    37.06 Bohr mag/cell
     absolute magnetization    =    39.41 Bohr mag/cell

     iteration # 13     ecut=    45.00 Ry     beta= 0.10
     Davidson diagonalization with overlap
     ethr =  1.26E-09,  avg # of iterations =  4.2

     negative rho (up, down):  0.000E+00 2.129E-03

     total cpu time spent up to now is     1678.3 secs

     total energy              =   -3716.29547353 Ry
     estimated scf accuracy    <       0.00000164 Ry

     total magnetization       =    37.06 Bohr mag/cell
     absolute magnetization    =    39.41 Bohr mag/cell

     iteration # 14     ecut=    45.00 Ry     beta= 0.10
     Davidson diagonalization with overlap
     ethr =  6.83E-10,  avg # of iterations =  3.6

     negative rho (up, down):  0.000E+00 2.128E-03

     total cpu time spent up to now is     1699.1 secs

     total energy              =   -3716.29548589 Ry
     estimated scf accuracy    <       0.00000046 Ry

     total magnetization       =    37.05 Bohr mag/cell
     absolute magnetization    =    39.41 Bohr mag/cell

     iteration # 15     ecut=    45.00 Ry     beta= 0.10
     Davidson diagonalization with overlap
     ethr =  1.90E-10,  avg # of iterations =  3.4

     negative rho (up, down):  0.000E+00 2.129E-03

     total cpu time spent up to now is     1718.5 secs

     total energy              =   -3716.29549588 Ry
     estimated scf accuracy    <       0.00000022 Ry

     total magnetization       =    37.05 Bohr mag/cell
     absolute magnetization    =    39.40 Bohr mag/cell

     iteration # 16     ecut=    45.00 Ry     beta= 0.10
     Davidson diagonalization with overlap
     ethr =  9.15E-11,  avg # of iterations =  4.0

     negative rho (up, down):  0.000E+00 2.129E-03

     total cpu time spent up to now is     1740.2 secs

     total energy              =   -3716.29550620 Ry
     estimated scf accuracy    <       0.00000040 Ry

     total magnetization       =    37.05 Bohr mag/cell
     absolute magnetization    =    39.40 Bohr mag/cell

     iteration # 17     ecut=    45.00 Ry     beta= 0.10
     Davidson diagonalization with overlap
     ethr =  9.15E-11,  avg # of iterations =  2.6

     negative rho (up, down):  0.000E+00 2.129E-03

     total cpu time spent up to now is     1758.0 secs

     total energy              =   -3716.29551442 Ry
     estimated scf accuracy    <       0.00000011 Ry

     total magnetization       =    37.05 Bohr mag/cell
     absolute magnetization    =    39.40 Bohr mag/cell

     iteration # 18     ecut=    45.00 Ry     beta= 0.10
     Davidson diagonalization with overlap
     ethr =  4.61E-11,  avg # of iterations =  3.4

     negative rho (up, down):  0.000E+00 2.128E-03

     Magnetic moment per site  (integrated on atomic sphere of radius R)
     atom   1 (R=0.179)  charge= 14.4654  magn=  2.2125
     atom   2 (R=0.179)  charge= 14.4654  magn=  2.2125
     atom   3 (R=0.179)  charge= 14.3920  magn=  2.5831
     atom   4 (R=0.179)  charge= 14.4654  magn=  2.2125
     atom   5 (R=0.179)  charge= 14.3920  magn=  2.5831
     atom   6 (R=0.179)  charge= 14.3920  magn=  2.5831
     atom   7 (R=0.179)  charge= 14.3422  magn=  2.7825
     atom   8 (R=0.179)  charge= 14.3741  magn=  2.6054
     atom   9 (R=0.179)  charge= 14.3741  magn=  2.6054
     atom  10 (R=0.179)  charge= 14.3741  magn=  2.6054
     atom  11 (R=0.179)  charge= 14.3741  magn=  2.6054
     atom  12 (R=0.179)  charge= 14.3741  magn=  2.6054
     atom  13 (R=0.179)  charge= 14.3741  magn=  2.6054
     atom  14 (R=0.179)  charge= 14.3741  magn=  2.6054
     atom  15 (R=0.179)  charge= 14.3741  magn=  2.6054

     total cpu time spent up to now is     1777.0 secs

     End of self-consistent calculation

 ------ SPIN UP ------------


          k = 0.0000 0.0000 0.0000 (  6451 PWs)   bands (ev):

   -72.2900 -72.1609 -72.1278 -72.1278 -72.1249 -72.1249 -72.1249 -72.1200
   -72.1200 -72.1200 -72.1156 -72.0982 -71.6633 -71.6633 -71.6599 -38.3520
   -38.3520 -38.3520 -38.2440 -38.2440 -38.2440 -38.2438 -38.2053 -38.2053
   -38.2053 -38.1990 -38.1990 -38.1990 -38.1826 -38.1826 -38.1826 -38.1770
   -38.1092 -38.1092 -38.0992 -38.0992 -38.0992 -38.0745 -38.0745 -38.0745
   -38.0456 -38.0456 -38.0456 -38.0338 -38.0338 -38.0194 -38.0194 -38.0194
   -38.0045 -38.0045 -38.0045 -37.6615 -37.6615 -37.6615 -37.6302 -37.6302
   -37.6302 -37.6233 -37.6233 -37.6233   8.1746  11.4461  11.4946  11.4946
    11.5939  11.5939  11.6200  11.6200  11.6200  11.7917  11.7917  11.7917
    12.1744  12.1744  12.5262  12.8230  12.8230  12.8230  12.9345  12.9345
    12.9345  13.0245  13.0245  13.0245  13.2635  13.2635  13.2635  13.3598
    13.6236  13.6236  13.6236  13.7380  13.7380  13.9048  13.9048  13.9048
    14.1655  14.1655  14.1655  14.2473  14.2473  14.2473  14.3250  14.3250
    14.3250  14.7058  14.7058  14.7058  14.8100  14.9667  14.9667  15.0927
    15.0927  15.1375  15.1375  15.1375  15.1395  15.2311  15.2311  15.2501
    15.2501  15.2501  15.2546  15.2546  15.3600  15.3600  15.4090  15.6667
    15.6667  15.6667  16.1766  16.1766  16.2626  16.2626  16.2626  16.2796
    16.2796  16.2796  16.4633  16.4633  16.4633  16.7025  16.7247  16.7247

          k = 0.0000 0.0000 0.2500 (  6495 PWs)   bands (ev):

   -72.2900 -72.1583 -72.1385 -72.1279 -72.1244 -72.1244 -72.1208 -72.1208
   -72.1196 -72.1161 -72.1159 -72.0992 -71.6634 -71.6629 -71.6603 -38.3522
   -38.3522 -38.3518 -38.2505 -38.2446 -38.2425 -38.2425 -38.2189 -38.2189
   -38.1999 -38.1936 -38.1932 -38.1932 -38.1839 -38.1757 -38.1757 -38.1740
   -38.1394 -38.1277 -38.1277 -38.1234 -38.0838 -38.0838 -38.0677 -38.0665
   -38.0461 -38.0450 -38.0409 -38.0357 -38.0357 -38.0223 -38.0129 -38.0129
   -38.0013 -38.0013 -37.9989 -37.6612 -37.6592 -37.6592 -37.6359 -37.6355
   -37.6355 -37.6315 -37.6315 -37.6283   8.4757  10.6324  11.5635  11.5830
    11.6501  11.6691  11.6691  11.7079  11.7942  11.8785  11.8785  11.9301
    12.2235  12.2627  12.5405  12.7496  12.7702  12.7702  12.7988  12.8624
    12.9890  12.9890  13.0485  13.1872  13.1872  13.2568  13.2568  13.3731
    13.4726  13.7254  13.7254  13.7254  13.8382  13.8382  13.8896  13.9194
    13.9438  13.9438  14.0371  14.1964  14.1964  14.4026  14.4174  14.4768
    14.5564  14.5564  14.6889  14.6889  14.7081  14.7480  14.8226  14.8226
    14.8960  14.9946  15.0832  15.0944  15.1347  15.2052  15.2272  15.2272
    15.2330  15.2550  15.2657  15.3058  15.3338  15.3660  15.3660  15.3923
    15.4270  15.6252  15.6625  15.6962  15.6962  16.1847  16.1847  16.1853
    16.2500  16.3157  16.4134  16.4134  16.5768  16.7572  16.9426  16.9426

          k = 0.0000 0.0000-0.5000 (  6480 PWs)   bands (ev):

   -72.2900 -72.1525 -72.1477 -72.1279 -72.1234 -72.1234 -72.1217 -72.1217
   -72.1188 -72.1169 -72.1106 -72.1012 -71.6634 -71.6622 -71.6610 -38.3463
   -38.3463 -38.3445 -38.2590 -38.2375 -38.2375 -38.2303 -38.2067 -38.2067
   -38.1956 -38.1956 -38.1929 -38.1924 -38.1907 -38.1840 -38.1840 -38.1645
   -38.1582 -38.1440 -38.1440 -38.1433 -38.0950 -38.0950 -38.0602 -38.0560
   -38.0522 -38.0460 -38.0439 -38.0264 -38.0264 -38.0252 -38.0085 -38.0085
   -37.9918 -37.9918 -37.9912 -37.6588 -37.6519 -37.6519 -37.6425 -37.6425
   -37.6395 -37.6324 -37.6324 -37.6266   9.2297   9.5047  11.6868  11.7206
    11.7711  11.7711  11.8550  11.9103  11.9103  11.9712  12.0100  12.1291
    12.1619  12.2632  12.4032  12.4571  12.4858  12.7134  12.7260  12.7260
    13.0900  13.0900  13.3540  13.3540  13.3713  13.3891  13.4053  13.5193
    13.5193  13.6703  13.6703  13.6754  13.6782  13.6782  13.8064  13.8695
    13.8695  13.8784  13.8872  14.0798  14.0798  14.2362  14.3124  14.3124
    14.4095  14.4239  14.5751  14.5751  14.6102  14.6256  14.7620  14.7620
    14.8104  14.8907  14.9002  15.1837  15.1837  15.1930  15.2201  15.2263
    15.2263  15.2402  15.2447  15.2693  15.2830  15.3098  15.3341  15.4044
    15.5402  15.7908  15.8153  15.8153  15.8157  15.8157  15.8756  15.9786
    16.0846  16.3845  16.5960  16.5960  16.6639  16.7441  16.8101  16.8101

          k = 0.0000 0.2500 0.2500 (  6500 PWs)   bands (ev):

   -72.2900 -72.1558 -72.1397 -72.1348 -72.1241 -72.1237 -72.1202 -72.1202
   -72.1166 -72.1166 -72.1137 -72.1006 -71.6632 -71.6628 -71.6606 -38.3492
   -38.3483 -38.3472 -38.2550 -38.2438 -38.2394 -38.2328 -38.2222 -38.2182
   -38.2020 -38.1993 -38.1914 -38.1894 -38.1880 -38.1830 -38.1712 -38.1667
   -38.1603 -38.1392 -38.1352 -38.1061 -38.0833 -38.0831 -38.0749 -38.0671
   -38.0554 -38.0501 -38.0480 -38.0408 -38.0208 -38.0166 -38.0154 -38.0015
   -38.0014 -38.0011 -38.0002 -37.6600 -37.6548 -37.6544 -37.6417 -37.6358
   -37.6348 -37.6339 -37.6307 -37.6299   8.7760  10.7346  10.9104  11.5035
    11.7539  11.7710  11.8138  11.8440  11.8903  12.0089  12.0172  12.0655
    12.3232  12.3315  12.5952  12.6624  12.6751  12.8012  12.8789  12.9104
    12.9620  13.0192  13.0458  13.0914  13.1222  13.1248  13.2945  13.4030
    13.5111  13.5803  13.6692  13.6780  13.7536  13.7938  13.8033  13.8794
    13.8977  14.0118  14.0425  14.1632  14.2184  14.3566  14.3968  14.4402
    14.4578  14.4845  14.5187  14.5459  14.6119  14.6761  14.7345  14.7792
    14.7856  14.9039  14.9206  14.9962  15.0437  15.0752  15.1579  15.1952
    15.2192  15.2489  15.2564  15.2725  15.3143  15.3590  15.3650  15.4269
    15.5392  15.5434  15.5460  15.6111  15.6696  15.6946  15.6971  15.8323
    15.8884  15.9359  16.3248  16.6666  16.6980  17.7075  17.7816  17.9771

          k = 0.0000 0.2500-0.5000 (  6452 PWs)   bands (ev):

   -72.2898 -72.1504 -72.1466 -72.1353 -72.1256 -72.1228 -72.1211 -72.1192
   -72.1174 -72.1148 -72.1095 -72.1028 -71.6630 -71.6621 -71.6613 -38.3434
   -38.3415 -38.3410 -38.2592 -38.2504 -38.2280 -38.2263 -38.2096 -38.2062
   -38.1996 -38.1988 -38.1958 -38.1907 -38.1900 -38.1786 -38.1778 -38.1670
   -38.1604 -38.1404 -38.1393 -38.1120 -38.0886 -38.0875 -38.0652 -38.0566
   -38.0535 -38.0499 -38.0490 -38.0360 -38.0225 -38.0133 -38.0096 -38.0022
   -38.0010 -37.9987 -37.9908 -37.6536 -37.6478 -37.6460 -37.6404 -37.6400
   -37.6399 -37.6329 -37.6295 -37.6279   9.5035   9.7568  11.1499  11.3342
    11.9070  11.9782  12.0535  12.0962  12.1117  12.1225  12.1384  12.2263
    12.2707  12.3552  12.4715  12.4770  12.5555  12.7392  12.8240  12.8455
    13.0760  13.1092  13.1782  13.2005  13.2111  13.2692  13.2931  13.4124
    13.4511  13.5148  13.6281  13.6500  13.6974  13.7228  13.7284  13.7670
    13.8082  13.8863  13.9137  13.9625  14.0105  14.0892  14.1199  14.2171
    14.2611  14.4702  14.5745  14.5773  14.6023  14.6064  14.7726  14.8224
    14.8233  14.8722  14.8880  14.8913  14.9472  15.0230  15.0299  15.1382
    15.2304  15.2327  15.2503  15.2656  15.2793  15.3001  15.3509  15.3586
    15.4134  15.4940  15.5141  15.5772  15.5858  15.6317  15.6586  15.7864
    15.8932  16.1837  16.2124  17.1870  17.2056  17.2708  17.3703  18.9129

          k = 0.0000-0.5000-0.5000 (  6496 PWs)   bands (ev):

   -72.2898 -72.1453 -72.1453 -72.1431 -72.1278 -72.1220 -72.1202 -72.1202
   -72.1185 -72.1086 -72.1086 -72.1066 -71.6622 -71.6622 -71.6622 -38.3434
   -38.3369 -38.3369 -38.2639 -38.2620 -38.2168 -38.2168 -38.2161 -38.2144
   -38.2104 -38.2104 -38.2078 -38.1898 -38.1898 -38.1828 -38.1673 -38.1673
   -38.1647 -38.1391 -38.1362 -38.0791 -38.0771 -38.0771 -38.0756 -38.0681
   -38.0681 -38.0616 -38.0568 -38.0382 -38.0246 -38.0246 -38.0180 -38.0177
   -37.9988 -37.9988 -37.9964 -37.6486 -37.6482 -37.6418 -37.6418 -37.6410
   -37.6410 -37.6403 -37.6334 -37.6298  10.2445  10.2445  10.2459  10.7499
    12.1514  12.1514  12.1688  12.2911  12.3210  12.3210  12.3429  12.3596
    12.4527  12.4527  12.6096  12.6621  12.7123  12.7123  12.7573  12.7779
    12.9434  12.9812  12.9812  12.9818  13.0173  13.1178  13.1178  13.3898
    13.4894  13.4894  13.5114  13.5928  13.6032  13.6127  13.6859  13.6859
    13.7033  13.7805  13.7805  13.8631  13.8695  13.8695  13.9661  14.1815
    14.2415  14.4238  14.4887  14.4887  14.5862  14.6998  14.7896  14.7896
    14.8482  14.8630  14.8693  14.8693  14.8925  14.9975  14.9975  15.0293
    15.0293  15.0599  15.1060  15.2000  15.2145  15.2424  15.2424  15.2815
    15.3192  15.3192  15.3664  15.4763  15.4871  15.5801  15.5801  15.8583
    15.8583  16.2874  16.3189  18.0078  18.0687  18.0687  18.1997  18.2925

          k = 0.2500 0.2500 0.2500 (  6493 PWs)   bands (ev):

   -72.2899 -72.1535 -72.1389 -72.1389 -72.1257 -72.1222 -72.1222 -72.1207
   -72.1173 -72.1124 -72.1124 -72.1018 -71.6628 -71.6628 -71.6610 -38.3450
   -38.3429 -38.3429 -38.2573 -38.2385 -38.2311 -38.2311 -38.2287 -38.2068
   -38.2068 -38.1962 -38.1961 -38.1961 -38.1868 -38.1868 -38.1702 -38.1632
   -38.1564 -38.1564 -38.1199 -38.0976 -38.0976 -38.0883 -38.0883 -38.0683
   -38.0561 -38.0554 -38.0554 -38.0246 -38.0246 -38.0186 -38.0040 -38.0040
   -38.0006 -38.0006 -37.9977 -37.6592 -37.6506 -37.6506 -37.6458 -37.6356
   -37.6356 -37.6320 -37.6320 -37.6314   9.0691  10.9525  10.9525  11.1894
    11.6911  11.6911  11.8148  11.9947  11.9947  12.1059  12.2004  12.2004
    12.4843  12.4843  12.6250  12.6518  12.6774  12.8254  12.8254  12.9314
    12.9314  13.0153  13.0238  13.1526  13.1526  13.1903  13.1903  13.4237
    13.4663  13.4821  13.4821  13.5762  13.5762  13.7073  13.7073  13.8220
    13.8220  13.8616  13.8661  14.0493  14.0493  14.0942  14.2671  14.2671
    14.3241  14.3241  14.4790  14.6251  14.6251  14.6494  14.6786  14.8542
    14.8542  14.8704  14.9591  15.0098  15.0341  15.0341  15.1281  15.1281
    15.1634  15.2498  15.2498  15.2762  15.2762  15.2942  15.3130  15.3130
    15.4476  15.4848  15.4848  15.6217  15.6217  15.7311  15.8189  15.8189
    15.9690  15.9690  15.9854  16.7124  16.7124  16.7994  18.6572  18.6572

          k = 0.2500 0.2500-0.5000 (  6456 PWs)   bands (ev):

   -72.2898 -72.1486 -72.1455 -72.1380 -72.1255 -72.1240 -72.1221 -72.1205
   -72.1180 -72.1115 -72.1082 -72.1037 -71.6627 -71.6621 -71.6616 -38.3396
   -38.3390 -38.3367 -38.2578 -38.2451 -38.2367 -38.2188 -38.2159 -38.2087
   -38.2060 -38.1966 -38.1951 -38.1933 -38.1807 -38.1781 -38.1751 -38.1590
   -38.1583 -38.1538 -38.1146 -38.1074 -38.1018 -38.0851 -38.0765 -38.0721
   -38.0682 -38.0640 -38.0441 -38.0383 -38.0159 -38.0046 -38.0036 -38.0035
   -38.0021 -37.9984 -37.9916 -37.6528 -37.6517 -37.6445 -37.6434 -37.6391
   -37.6364 -37.6325 -37.6311 -37.6300   9.7795  10.0147  11.3681  11.4130
    11.4571  11.6851  12.2085  12.2461  12.2745  12.2861  12.2947  12.3153
    12.3720  12.4753  12.4805  12.5869  12.6512  12.7848  12.8305  12.9430
    13.0500  13.0880  13.1209  13.1353  13.1696  13.2423  13.2545  13.3006
    13.3259  13.4072  13.5068  13.5356  13.5768  13.5975  13.6147  13.6369
    13.6541  13.6655  13.6673  13.7338  13.7952  13.8972  13.8989  14.0499
    14.1958  14.3272  14.4432  14.5026  14.6806  14.7562  14.7932  14.8275
    14.8867  14.8897  14.9031  14.9108  14.9326  15.1092  15.1290  15.1703
    15.1897  15.2025  15.2396  15.2711  15.2964  15.3106  15.3343  15.3386
    15.3860  15.5077  15.5116  15.5788  15.5845  15.8401  15.9224  15.9274
    15.9678  15.9948  16.0251  16.1638  16.2027  17.8495  18.0393  19.4050

          k = 0.2500-0.5000-0.5000 (  6472 PWs)   bands (ev):

   -72.2897 -72.1444 -72.1444 -72.1432 -72.1270 -72.1228 -72.1224 -72.1224
   -72.1186 -72.1072 -72.1072 -72.1063 -71.6622 -71.6622 -71.6622 -38.3364
   -38.3326 -38.3326 -38.2558 -38.2505 -38.2241 -38.2241 -38.2167 -38.2076
   -38.2052 -38.2052 -38.2009 -38.1897 -38.1783 -38.1783 -38.1630 -38.1616
   -38.1616 -38.1512 -38.1138 -38.0966 -38.0934 -38.0850 -38.0850 -38.0818
   -38.0793 -38.0793 -38.0657 -38.0219 -38.0174 -38.0174 -38.0042 -38.0037
   -37.9947 -37.9947 -37.9945 -37.6543 -37.6492 -37.6470 -37.6470 -37.6365
   -37.6365 -37.6349 -37.6337 -37.6316  10.5067  10.5165  10.5165  10.9669
    11.8912  12.0085  12.0085  12.2900  12.3495  12.3495  12.4062  12.6629
    12.6629  12.6822  12.7028  12.7669  12.7818  12.7818  12.7940  12.8474
    12.8938  12.9727  12.9727  13.0007  13.0547  13.0547  13.0982  13.2357
    13.2903  13.2903  13.3369  13.3998  13.4411  13.4413  13.4685  13.4685
    13.5129  13.5129  13.5893  13.6424  13.6646  13.6646  13.7354  13.7744
    13.8623  14.3089  14.3089  14.3779  14.8310  14.9138  14.9305  14.9305
    14.9446  14.9532  15.0195  15.0195  15.1017  15.1100  15.1100  15.1658
    15.2102  15.2521  15.2700  15.2700  15.2884  15.3320  15.3320  15.3427
    15.3610  15.3610  15.4477  15.5160  15.5160  15.5348  15.6295  15.7785
    15.7785  16.0306  16.0650  16.8567  16.8986  16.8986  17.0196  20.3444

          k =-0.5000-0.5000-0.5000 (  6488 PWs)   bands (ev):

   -72.2897 -72.1435 -72.1435 -72.1435 -72.1251 -72.1245 -72.1245 -72.1245
   -72.1187 -72.1060 -72.1060 -72.1060 -71.6621 -71.6621 -71.6621 -38.3277
   -38.3277 -38.3277 -38.2546 -38.2301 -38.2290 -38.2290 -38.2290 -38.1959
   -38.1959 -38.1959 -38.1912 -38.1912 -38.1681 -38.1681 -38.1681 -38.1657
   -38.1657 -38.1657 -38.1094 -38.1094 -38.0952 -38.0952 -38.0952 -38.0904
   -38.0904 -38.0904 -38.0811 -38.0075 -38.0075 -38.0075 -37.9987 -37.9987
   -37.9987 -37.9983 -37.9983 -37.6564 -37.6486 -37.6486 -37.6486 -37.6380
   -37.6380 -37.6380 -37.6350 -37.6350  11.1770  11.1815  11.1815  11.1815
    11.2967  11.2967  11.2967  12.1710  12.7691  12.7691  12.7691  12.7906
    12.7906  12.7906  12.8177  12.8177  12.8177  12.8449  12.8449  12.9349
    12.9349  12.9349  13.0069  13.0069  13.0912  13.0912  13.0912  13.1526
    13.1526  13.1526  13.2248  13.2497  13.2497  13.2497  13.2698  13.2698
    13.2698  13.2802  13.2802  13.2802  13.3184  13.3461  13.3461  13.6661
    13.6661  14.2595  14.2595  14.2595  14.9604  14.9604  15.0063  15.0063
    15.0063  15.0777  15.0777  15.0777  15.1227  15.1227  15.1227  15.2420
    15.2420  15.2672  15.2672  15.2672  15.4489  15.4489  15.4489  15.4725
    15.4725  15.4725  15.6612  15.6612  15.6612  15.7353  15.7353  15.8474
    15.8474  15.8474  15.9384  16.2001  16.2001  16.2001  16.2950  22.5616

 ------ SPIN DOWN ----------


          k = 0.0000 0.0000 0.0000 (  6451 PWs)   bands (ev):

   -68.9333 -68.8867 -68.8867 -68.8738 -68.8665 -68.8665 -68.8632 -68.8632
   -68.8632 -68.8577 -68.8577 -68.8577 -68.8525 -68.8214 -68.7962 -35.2149
   -35.2149 -35.2149 -35.1596 -35.1596 -35.1596 -35.0541 -35.0541 -35.0541
   -35.0303 -35.0303 -35.0191 -35.0191 -35.0191 -35.0040 -35.0040 -35.0040
   -34.9809 -34.9809 -34.9809 -34.9594 -34.9572 -34.9572 -34.9572 -34.9551
   -34.9551 -34.9551 -34.9424 -34.9424 -34.9118 -34.9118 -34.9118 -34.8984
   -34.8984 -34.8984 -34.8803 -34.8041 -34.8041 -34.8041 -34.7960 -34.7960
   -34.7960 -34.7915 -34.7915 -34.7915   8.3184  12.3256  12.3256  12.4337
    12.4337  12.4337  12.5993  13.0518  13.0518  13.1221  13.1221  13.1221
    13.7630  13.9160  13.9160  14.7552  14.7552  14.7552  14.8408  14.8408
    14.8408  14.9916  14.9916  14.9916  15.5850  15.5850  15.5850  15.7168
    15.7448  15.7448  15.7448  16.2175  16.2175  16.4034  16.4034  16.4034
    16.4402  16.4402  16.4402  16.5520  16.5520  16.5520  16.6080  16.6080
    16.6080  16.9018  16.9018  16.9018  17.2687  17.2687  17.2687  17.5033
    17.5033  17.5993  17.5993  17.5993  17.8325  17.9038  17.9038  17.9038
    18.0920  18.0920  18.1183  18.2288  18.2288  18.4023  18.4023  18.4046
    18.4046  18.4046  18.4058  18.4058  18.4211  18.6474  18.6474  18.6474
    18.8346  18.8346  18.9833  18.9833  18.9833  19.0013  19.0013  19.0013

          k = 0.0000 0.0000 0.2500 (  6495 PWs)   bands (ev):

   -68.9284 -68.8965 -68.8866 -68.8771 -68.8713 -68.8667 -68.8625 -68.8625
   -68.8585 -68.8585 -68.8571 -68.8531 -68.8473 -68.8233 -68.7972 -35.2072
   -35.2072 -35.2066 -35.1513 -35.1485 -35.1485 -35.0841 -35.0841 -35.0794
   -35.0784 -35.0534 -35.0534 -35.0461 -35.0280 -35.0280 -35.0099 -34.9887
   -34.9784 -34.9784 -34.9553 -34.9546 -34.9543 -34.9494 -34.9318 -34.9300
   -34.9300 -34.9246 -34.9246 -34.9121 -34.9029 -34.9023 -34.9023 -34.8991
   -34.8873 -34.8794 -34.8794 -34.8270 -34.8157 -34.8157 -34.8139 -34.8139
   -34.8139 -34.8089 -34.8089 -34.8084   8.6238  10.9046  12.4888  12.6005
    12.6005  12.6582  13.0612  13.0905  13.0905  13.1214  13.3257  13.4572
    13.8692  14.0239  14.0502  14.5371  14.5845  14.7508  14.7508  15.0249
    15.0249  15.0576  15.0576  15.0698  15.1199  15.4566  15.4566  15.5818
    15.5990  15.7341  15.7341  16.0416  16.0715  16.0715  16.1315  16.1550
    16.2269  16.2269  16.3167  16.3345  16.3345  16.5496  16.5496  16.5595
    16.7027  16.9073  16.9216  16.9216  17.0320  17.1532  17.1532  17.3547
    17.5582  17.5582  17.6339  17.9137  17.9240  17.9604  17.9604  17.9760
    17.9920  18.0767  18.1370  18.1427  18.2911  18.3690  18.3976  18.4010
    18.4073  18.4273  18.4273  18.5451  18.6346  18.6656  18.7717  18.7942
    18.7942  18.8677  18.8729  18.8729  18.8977  18.9896  19.0307  19.0451

          k = 0.0000 0.0000-0.5000 (  6480 PWs)   bands (ev):

   -68.9153 -68.9142 -68.8864 -68.8780 -68.8716 -68.8669 -68.8614 -68.8614
   -68.8595 -68.8595 -68.8561 -68.8542 -68.8361 -68.8279 -68.7982 -35.1594
   -35.1594 -35.1573 -35.1537 -35.1537 -35.1451 -35.1293 -35.1077 -35.1077
   -35.1051 -35.1026 -35.1026 -35.0566 -35.0206 -35.0206 -35.0175 -34.9982
   -34.9982 -34.9765 -34.9651 -34.9551 -34.9526 -34.9507 -34.9276 -34.9276
   -34.8953 -34.8936 -34.8904 -34.8794 -34.8786 -34.8786 -34.8732 -34.8732
   -34.8705 -34.8682 -34.8535 -34.8535 -34.8436 -34.8436 -34.8351 -34.8331
   -34.8331 -34.8156 -34.8153 -34.8153   9.3929   9.6790  12.7179  12.8031
    12.9235  12.9235  12.9339  12.9339  13.0384  13.2876  13.7466  13.7603
    13.9789  14.0814  14.1238  14.2280  14.2491  14.6888  14.7662  14.7662
    15.0494  15.0494  15.3983  15.4097  15.4408  15.4408  15.4666  15.4666
    15.5008  15.5008  15.6187  15.6358  15.6631  15.6631  15.6816  15.9853
    15.9853  15.9888  16.0052  16.0052  16.1699  16.2151  16.3746  16.3746
    16.7744  17.0745  17.0745  17.2779  17.4059  17.4268  17.4268  17.5440
    17.5567  17.6462  17.7094  17.7094  17.7246  17.8535  17.8535  18.0179
    18.2222  18.2506  18.2955  18.3327  18.3459  18.3782  18.3806  18.3806
    18.4019  18.4097  18.4639  18.5059  18.5394  18.5418  18.5418  18.6367
    18.7092  18.7529  18.8311  19.0009  19.0009  19.0025  19.0982  19.0982

          k = 0.0000 0.2500 0.2500 (  6500 PWs)   bands (ev):

   -68.9238 -68.8975 -68.8915 -68.8801 -68.8744 -68.8721 -68.8618 -68.8578
   -68.8578 -68.8569 -68.8538 -68.8514 -68.8447 -68.8254 -68.7978 -35.2014
   -35.1923 -35.1837 -35.1522 -35.1360 -35.1272 -35.1190 -35.1134 -35.1042
   -35.0931 -35.0634 -35.0483 -35.0338 -35.0269 -35.0070 -35.0052 -34.9911
   -34.9879 -34.9839 -34.9833 -34.9642 -34.9605 -34.9595 -34.9412 -34.9372
   -34.9365 -34.9334 -34.9076 -34.9040 -34.9000 -34.8894 -34.8812 -34.8805
   -34.8671 -34.8628 -34.8593 -34.8486 -34.8368 -34.8239 -34.8232 -34.8198
   -34.8122 -34.8085 -34.8056 -34.7982   8.9286  11.0382  11.2508  12.5312
    12.7613  12.7860  13.2268  13.2991  13.3330  13.4408  13.5401  13.6343
    13.9883  14.0964  14.1706  14.4549  14.5218  14.8133  14.8426  14.9284
    14.9530  15.0413  15.0462  15.0858  15.1171  15.1665  15.2816  15.5202
    15.6054  15.6697  15.6802  15.8065  15.8156  15.8200  15.9267  15.9575
    16.0052  16.0686  16.1461  16.1716  16.2624  16.4013  16.4289  16.5358
    16.7748  16.8662  16.8728  17.1119  17.1272  17.2594  17.2791  17.3787
    17.3793  17.4832  17.6126  17.8064  17.9198  17.9697  18.0125  18.0453
    18.0497  18.1495  18.1692  18.2233  18.2429  18.2980  18.2980  18.3180
    18.3689  18.3906  18.4132  18.4475  18.4757  18.5152  18.5522  18.5855
    18.6045  18.7323  19.0120  19.0499  19.1639  19.5870  19.6890  19.8197

          k = 0.0000 0.2500-0.5000 (  6452 PWs)   bands (ev):

   -68.9120 -68.9109 -68.8911 -68.8831 -68.8744 -68.8742 -68.8608 -68.8589
   -68.8567 -68.8556 -68.8548 -68.8497 -68.8358 -68.8303 -68.7984 -35.1679
   -35.1655 -35.1523 -35.1496 -35.1453 -35.1415 -35.1366 -35.1275 -35.1038
   -35.0980 -35.0676 -35.0651 -35.0385 -35.0280 -35.0212 -35.0099 -34.9922
   -34.9921 -34.9788 -34.9676 -34.9637 -34.9591 -34.9479 -34.9474 -34.9354
   -34.9284 -34.9274 -34.9078 -34.9010 -34.8996 -34.8873 -34.8686 -34.8638
   -34.8525 -34.8481 -34.8458 -34.8438 -34.8405 -34.8317 -34.8314 -34.8136
   -34.8134 -34.8132 -34.8071 -34.8067   9.6789   9.9481  11.6514  11.9389
    12.9946  13.1430  13.1595  13.3428  13.7127  13.7837  13.7901  13.8077
    14.0449  14.0533  14.2511  14.2869  14.2920  14.6894  14.8564  14.8639
    15.0479  15.0583  15.0970  15.1077  15.2150  15.2416  15.2810  15.3458
    15.3840  15.4807  15.5884  15.5956  15.6243  15.6940  15.7276  15.7484
    15.7607  15.8665  16.0073  16.0229  16.1055  16.1498  16.2216  16.5874
    16.7049  17.0217  17.2283  17.2716  17.3287  17.3403  17.4146  17.4249
    17.5508  17.5663  17.6004  17.6297  17.6668  17.6750  17.8224  18.0438
    18.0453  18.0655  18.1631  18.2526  18.2541  18.2959  18.3119  18.3725
    18.3796  18.4220  18.4281  18.4383  18.4497  18.4517  18.4917  18.6803
    18.6965  18.8387  18.8723  19.3422  19.4143  19.4605  19.5220  20.3529

          k = 0.0000-0.5000-0.5000 (  6496 PWs)   bands (ev):

   -68.9057 -68.9057 -68.8990 -68.8916 -68.8753 -68.8753 -68.8597 -68.8578
   -68.8578 -68.8559 -68.8531 -68.8403 -68.8355 -68.8355 -68.7987 -35.1711
   -35.1561 -35.1561 -35.1513 -35.1488 -35.1488 -35.1437 -35.1335 -35.1006
   -35.0956 -35.0256 -35.0256 -35.0204 -35.0204 -35.0046 -35.0046 -34.9991
   -34.9935 -34.9913 -34.9787 -34.9755 -34.9744 -34.9741 -34.9705 -34.9705
   -34.9490 -34.9426 -34.9426 -34.9213 -34.9119 -34.8752 -34.8650 -34.8650
   -34.8510 -34.8510 -34.8412 -34.8412 -34.8344 -34.8332 -34.8276 -34.8151
   -34.8054 -34.8054 -34.8009 -34.7975  10.4770  10.5022  10.5022  11.0627
    13.4960  13.4966  13.5455  13.5455  13.6856  13.7042  13.7042  14.0406
    14.0406  14.1742  14.3073  14.5438  14.6052  14.6052  14.6223  14.7292
    14.8379  14.9278  14.9986  14.9986  15.0212  15.1217  15.1217  15.3634
    15.3786  15.3786  15.4485  15.4485  15.5045  15.5155  15.5548  15.6814
    15.6838  15.7334  15.9807  16.0519  16.0519  16.3067  16.3067  16.5480
    16.7057  16.9511  16.9908  16.9908  17.2324  17.2493  17.2493  17.5388
    17.5656  17.6393  17.7192  17.7192  17.7434  17.7780  17.7947  17.7947
    17.9321  17.9321  18.0595  18.0768  18.1140  18.2266  18.2637  18.2637
    18.3036  18.3036  18.3617  18.4204  18.4252  18.4252  18.4637  18.7599
    18.7599  18.9657  18.9981  19.9553  20.1238  20.1337  20.1337  20.3069

          k = 0.2500 0.2500 0.2500 (  6493 PWs)   bands (ev):

   -68.9196 -68.8955 -68.8955 -68.8815 -68.8782 -68.8782 -68.8597 -68.8582
   -68.8554 -68.8554 -68.8538 -68.8451 -68.8451 -68.8273 -68.7982 -35.1880
   -35.1710 -35.1710 -35.1403 -35.1403 -35.1265 -35.1248 -35.1248 -35.1117
   -35.0657 -35.0657 -35.0454 -35.0454 -35.0309 -35.0304 -35.0304 -35.0213
   -35.0086 -34.9856 -34.9743 -34.9743 -34.9493 -34.9493 -34.9226 -34.9226
   -34.9212 -34.9212 -34.9205 -34.9037 -34.8995 -34.8984 -34.8984 -34.8847
   -34.8561 -34.8524 -34.8449 -34.8449 -34.8313 -34.8313 -34.8186 -34.8136
   -34.8136 -34.8113 -34.8099 -34.8099   9.2272  11.2888  11.2888  11.5945
    12.7142  12.7142  12.9506  13.6827  13.6827  13.7198  13.7958  13.7958
    14.1543  14.2175  14.2175  14.2874  14.5431  14.7861  14.8272  14.8272
    14.9857  14.9857  15.0731  15.1031  15.1031  15.1860  15.1860  15.4591
    15.5710  15.5710  15.5948  15.5948  15.6069  15.7232  15.7684  15.7684
    15.8115  15.8611  15.8611  16.0810  16.0810  16.2516  16.2516  16.4153
    16.7184  16.9121  16.9121  17.2655  17.3089  17.3388  17.4450  17.4450
    17.5284  17.5284  17.5805  17.8291  17.8291  17.9259  17.9855  17.9882
    17.9882  18.1670  18.1670  18.2617  18.2898  18.2898  18.3125  18.3125
    18.3532  18.3875  18.3875  18.4573  18.4573  18.5852  18.5852  18.5861
    18.6120  18.6120  18.6603  19.0468  19.0468  19.1070  20.3785  20.3785

          k = 0.2500 0.2500-0.5000 (  6456 PWs)   bands (ev):

   -68.9089 -68.9079 -68.8927 -68.8826 -68.8825 -68.8792 -68.8604 -68.8586
   -68.8545 -68.8535 -68.8532 -68.8458 -68.8361 -68.8322 -68.7986 -35.1612
   -35.1607 -35.1556 -35.1452 -35.1369 -35.1319 -35.1227 -35.1224 -35.0858
   -35.0838 -35.0742 -35.0718 -35.0425 -35.0386 -35.0356 -35.0289 -35.0095
   -34.9912 -34.9867 -34.9856 -34.9852 -34.9579 -34.9560 -34.9450 -34.9264
   -34.9222 -34.9055 -34.9033 -34.8989 -34.8951 -34.8746 -34.8730 -34.8722
   -34.8669 -34.8596 -34.8434 -34.8403 -34.8363 -34.8256 -34.8194 -34.8188
   -34.8133 -34.8130 -34.8104 -34.8094   9.9647  10.2189  11.8693  11.9406
    12.0279  12.3520  13.3263  13.6502  13.9163  13.9296  13.9789  14.0535
    14.0808  14.2474  14.3525  14.4066  14.4400  14.7253  14.9096  14.9350
    14.9502  14.9841  15.0052  15.1133  15.1388  15.1395  15.1986  15.2010
    15.2772  15.4331  15.5145  15.5361  15.5648  15.5718  15.5947  15.6521
    15.7097  15.8091  15.8251  15.8269  15.9680  15.9682  16.0343  16.4932
    16.5658  16.9780  17.0280  17.0823  17.4147  17.4491  17.4769  17.4850
    17.6967  17.7100  17.7117  17.7399  17.8067  17.8731  17.9051  18.1164
    18.1262  18.1880  18.2030  18.2129  18.2258  18.2614  18.3337  18.3374
    18.3588  18.3817  18.3906  18.4234  18.4779  18.5004  18.5656  18.5923
    18.5952  18.5969  18.6461  18.6591  18.7325  19.9395  20.0956  20.9443

          k = 0.2500-0.5000-0.5000 (  6472 PWs)   bands (ev):

   -68.9028 -68.9028 -68.8982 -68.8909 -68.8820 -68.8820 -68.8616 -68.8598
   -68.8528 -68.8528 -68.8500 -68.8392 -68.8366 -68.8366 -68.7987 -35.1549
   -35.1437 -35.1437 -35.1367 -35.1313 -35.1278 -35.1278 -35.1186 -35.0938
   -35.0830 -35.0577 -35.0577 -35.0516 -35.0396 -35.0358 -35.0358 -35.0221
   -35.0157 -35.0107 -35.0107 -34.9856 -34.9537 -34.9537 -34.9469 -34.9175
   -34.9107 -34.9107 -34.9099 -34.9013 -34.8942 -34.8739 -34.8739 -34.8709
   -34.8566 -34.8566 -34.8422 -34.8374 -34.8356 -34.8356 -34.8296 -34.8164
   -34.8152 -34.8146 -34.8146 -34.8127  10.7457  10.7810  10.7810  11.2834
    12.5102  12.6334  12.6334  13.2113  14.2321  14.2321  14.2837  14.3501
    14.3501  14.3774  14.5847  14.6036  14.6247  14.6786  14.6786  14.7807
    14.8140  14.9325  14.9325  15.0066  15.1133  15.1133  15.1464  15.1963
    15.2696  15.2696  15.4097  15.4112  15.4112  15.4150  15.5547  15.5590
    15.5785  15.7266  15.7590  15.7590  15.8004  15.9611  15.9611  15.9808
    16.1894  16.9756  16.9756  17.0869  17.6471  17.6865  17.6865  17.6985
    17.7227  17.8389  17.8760  17.8760  17.9002  17.9057  17.9057  18.0095
    18.0095  18.0227  18.0734  18.1362  18.2029  18.2213  18.2390  18.2390
    18.2974  18.3197  18.3197  18.3704  18.3767  18.3767  18.3899  18.5835
    18.5835  18.6078  18.7021  19.2225  19.2225  19.2375  19.3065  21.8710

          k =-0.5000-0.5000-0.5000 (  6488 PWs)   bands (ev):

   -68.8975 -68.8975 -68.8975 -68.8900 -68.8900 -68.8900 -68.8633 -68.8622
   -68.8484 -68.8484 -68.8484 -68.8383 -68.8383 -68.8383 -68.7986 -35.1159
   -35.1159 -35.1050 -35.1050 -35.1050 -35.1031 -35.1031 -35.1031 -35.0927
   -35.0927 -35.0927 -35.0834 -35.0834 -35.0834 -35.0816 -35.0816 -35.0490
   -35.0448 -35.0018 -35.0018 -35.0018 -34.9437 -34.9437 -34.9437 -34.8812
   -34.8812 -34.8812 -34.8734 -34.8734 -34.8731 -34.8731 -34.8731 -34.8731
   -34.8731 -34.8731 -34.8518 -34.8437 -34.8437 -34.8437 -34.8422 -34.8384
   -34.8384 -34.8230 -34.8230 -34.8230  11.4856  11.4898  11.4898  11.4898
    11.6328  11.6328  11.6328  12.6682  14.6360  14.6360  14.6360  14.6516
    14.6516  14.6516  14.7243  14.7243  14.7449  14.7449  14.7449  14.9094
    14.9094  14.9094  15.0346  15.0346  15.0346  15.1218  15.1218  15.2541
    15.2541  15.2541  15.3192  15.3192  15.3192  15.3289  15.3781  15.3781
    15.3995  15.3995  15.3995  15.4238  15.5903  15.5903  15.5903  15.7665
    15.7665  17.0028  17.0028  17.0028  17.9499  17.9499  17.9499  17.9672
    17.9672  18.0051  18.0051  18.0610  18.0610  18.0610  18.0781  18.0781
    18.0781  18.2067  18.2067  18.2067  18.2095  18.2095  18.2095  18.2817
    18.2817  18.2817  18.3417  18.3417  18.3655  18.3655  18.3655  18.3989
    18.3989  18.3989  18.4865  18.5893  18.5893  18.5893  18.8484  23.6959

     the Fermi energy is    16.2327 ev

!    total energy              =   -3716.29554997 Ry
     estimated scf accuracy    <       0.00000003 Ry
     smearing contrib. (-TS)   =       0.01684880 Ry
     internal energy E=F+TS    =   -3716.31239876 Ry

     The total energy is F=E-TS. E is the sum of the following terms:
     one-electron contribution =   -1868.43499588 Ry
     hartree contribution      =    1058.93939345 Ry
     xc contribution           =    -416.16710471 Ry
     ewald contribution        =   -2490.64969163 Ry

     total magnetization       =    37.05 Bohr mag/cell
     absolute magnetization    =    39.40 Bohr mag/cell

     convergence has been achieved in  18 iterations

     negative rho (up, down):  0.000E+00 2.128E-03

     Forces acting on atoms (cartesian axes, Ry/au):

     atom    1 type  1   force =     0.00000000    0.00000000    0.00000000
     atom    2 type  1   force =     0.00000000    0.00000000    0.00000000
     atom    3 type  1   force =     0.00000000    0.00000000    0.00000000
     atom    4 type  1   force =     0.00000000    0.00000000    0.00000000
     atom    5 type  1   force =     0.00000000    0.00000000    0.00000000
     atom    6 type  1   force =     0.00000000    0.00000000    0.00000000
     atom    7 type  1   force =     0.00000000    0.00000000    0.00000000
     atom    8 type  1   force =    -0.00352495   -0.00352495   -0.00352495
     atom    9 type  1   force =     0.00352495   -0.00352495   -0.00352495
     atom   10 type  1   force =    -0.00352495    0.00352495   -0.00352495
     atom   11 type  1   force =     0.00352495    0.00352495   -0.00352495
     atom   12 type  1   force =    -0.00352495   -0.00352495    0.00352495
     atom   13 type  1   force =     0.00352495   -0.00352495    0.00352495
     atom   14 type  1   force =    -0.00352495    0.00352495    0.00352495
     atom   15 type  1   force =     0.00352495    0.00352495    0.00352495

     Total force =     0.017269     Total SCF correction =     0.000600
     Energy error            =      3.7E-03 Ry
     Gradient error          =      3.5E-03 Ry/Bohr

     number of scf cycles    =   5
     number of bfgs steps    =   4

     energy             old  =   -3716.2918408096 Ry
     energy             new  =   -3716.2955499685 Ry

     CASE: energy            _new < energy            _old

     new trust radius        =       0.0534590808 bohr
     new conv_thr            =       0.0000000352 Ry


ATOMIC_POSITIONS (crystal)
Fe               0.5000000000        0.0000000000        0.0000000000
Fe               0.0000000000        0.5000000000        0.0000000000
Fe               0.5000000000        0.5000000000        0.0000000000
Fe               0.0000000000        0.0000000000        0.5000000000
Fe               0.5000000000        0.0000000000        0.5000000000
Fe               0.0000000000        0.5000000000        0.5000000000
Fe               0.5000000000        0.5000000000        0.5000000000
Fe               0.2401965391        0.2401965391        0.2401965391
Fe               0.7598034609        0.2401965391        0.2401965391
Fe               0.2401965391        0.7598034609        0.2401965391
Fe               0.7598034609        0.7598034609        0.2401965391
Fe               0.2401965391        0.2401965391        0.7598034609
Fe               0.7598034609        0.2401965391        0.7598034609
Fe               0.2401965391        0.7598034609        0.7598034609
Fe               0.7598034609        0.7598034609        0.7598034609



     Writing config-only to output data dir ./outdir/fe15_vacancy.save/ :
     XML data file
     NEW-OLD atomic charge density approx. for the potential

     Check: negative core charge=   -0.000004

     negative rho (up, down):  0.000E+00 3.721E-03
     Generating pointlists ...
     new r_m :   0.1764 (alat units)  1.9108 (a.u.) for type    1

     total cpu time spent up to now is     1780.2 secs

     per-process dynamical memory:   152.1 Mb

     Self-consistent Calculation

     iteration #  1     ecut=    45.00 Ry     beta= 0.10
     Davidson diagonalization with overlap
     ethr =  1.00E-06,  avg # of iterations =  9.4

     negative rho (up, down):  0.000E+00 3.734E-03

     total cpu time spent up to now is     1829.9 secs

     total energy              =   -3716.29627623 Ry
     estimated scf accuracy    <       0.03353736 Ry

     total magnetization       =    37.27 Bohr mag/cell
     absolute magnetization    =    39.64 Bohr mag/cell

     iteration #  2     ecut=    45.00 Ry     beta= 0.10
     Davidson diagonalization with overlap
     ethr =  1.40E-05,  avg # of iterations =  1.0

     negative rho (up, down):  0.000E+00 3.608E-03

     total cpu time spent up to now is     1844.0 secs

     total energy              =   -3716.29589152 Ry
     estimated scf accuracy    <       0.01569329 Ry

     total magnetization       =    37.20 Bohr mag/cell
     absolute magnetization    =    39.58 Bohr mag/cell

     iteration #  3     ecut=    45.00 Ry     beta= 0.10
     Davidson diagonalization with overlap
     ethr =  6.54E-06,  avg # of iterations =  1.2

     negative rho (up, down):  0.000E+00 3.311E-03

     total cpu time spent up to now is     1858.3 secs

     total energy              =   -3716.29599840 Ry
     estimated scf accuracy    <       0.00304734 Ry

     total magnetization       =    37.10 Bohr mag/cell
     absolute magnetization    =    39.49 Bohr mag/cell

     iteration #  4     ecut=    45.00 Ry     beta= 0.10
     Davidson diagonalization with overlap
     ethr =  1.27E-06,  avg # of iterations =  2.3

     negative rho (up, down):  0.000E+00 3.201E-03

     total cpu time spent up to now is     1875.6 secs

     total energy              =   -3716.29601359 Ry
     estimated scf accuracy    <       0.00261907 Ry

     total magnetization       =    37.17 Bohr mag/cell
     absolute magnetization    =    39.56 Bohr mag/cell

     iteration #  5     ecut=    45.00 Ry     beta= 0.10
     Davidson diagonalization with overlap
     ethr =  1.09E-06,  avg # of iterations =  2.2

     negative rho (up, down):  0.000E+00 3.257E-03

     total cpu time spent up to now is     1891.5 secs

     total energy              =   -3716.29634571 Ry
     estimated scf accuracy    <       0.00032406 Ry

     total magnetization       =    37.10 Bohr mag/cell
     absolute magnetization    =    39.50 Bohr mag/cell

     iteration #  6     ecut=    45.00 Ry     beta= 0.10
     Davidson diagonalization with overlap
     ethr =  1.35E-07,  avg # of iterations =  3.5

     negative rho (up, down):  0.000E+00 3.263E-03

     total cpu time spent up to now is     1908.7 secs

     total energy              =   -3716.29640723 Ry
     estimated scf accuracy    <       0.00002338 Ry

     total magnetization       =    37.12 Bohr mag/cell
     absolute magnetization    =    39.51 Bohr mag/cell

     iteration #  7     ecut=    45.00 Ry     beta= 0.10
     Davidson diagonalization with overlap
     ethr =  9.74E-09,  avg # of iterations =  4.5

     negative rho (up, down):  0.000E+00 3.310E-03

     total cpu time spent up to now is     1929.1 secs

     total energy              =   -3716.29647467 Ry
     estimated scf accuracy    <       0.00004566 Ry

     total magnetization       =    37.12 Bohr mag/cell
     absolute magnetization    =    39.51 Bohr mag/cell

     iteration #  8     ecut=    45.00 Ry     beta= 0.10
     Davidson diagonalization with overlap
     ethr =  9.74E-09,  avg # of iterations =  2.0

     negative rho (up, down):  0.000E+00 3.333E-03

     total cpu time spent up to now is     1945.8 secs

     total energy              =   -3716.29650755 Ry
     estimated scf accuracy    <       0.00001309 Ry

     total magnetization       =    37.11 Bohr mag/cell
     absolute magnetization    =    39.51 Bohr mag/cell

     iteration #  9     ecut=    45.00 Ry     beta= 0.10
     Davidson diagonalization with overlap
     ethr =  5.46E-09,  avg # of iterations =  2.4

     negative rho (up, down):  0.000E+00 3.346E-03

     total cpu time spent up to now is     1963.1 secs

     total energy              =   -3716.29653413 Ry
     estimated scf accuracy    <       0.00002293 Ry

     total magnetization       =    37.11 Bohr mag/cell
     absolute magnetization    =    39.51 Bohr mag/cell

     iteration # 10     ecut=    45.00 Ry     beta= 0.10
     Davidson diagonalization with overlap
     ethr =  5.46E-09,  avg # of iterations =  1.6

     negative rho (up, down):  0.000E+00 3.377E-03

     total cpu time spent up to now is     1978.3 secs

     total energy              =   -3716.29656100 Ry
     estimated scf accuracy    <       0.00001267 Ry

     total magnetization       =    37.11 Bohr mag/cell
     absolute magnetization    =    39.50 Bohr mag/cell

     iteration # 11     ecut=    45.00 Ry     beta= 0.10
     Davidson diagonalization with overlap
     ethr =  5.28E-09,  avg # of iterations =  2.0

     negative rho (up, down):  0.000E+00 3.400E-03

     total cpu time spent up to now is     1994.7 secs

     total energy              =   -3716.29657863 Ry
     estimated scf accuracy    <       0.00000887 Ry

     total magnetization       =    37.11 Bohr mag/cell
     absolute magnetization    =    39.50 Bohr mag/cell

     iteration # 12     ecut=    45.00 Ry     beta= 0.10
     Davidson diagonalization with overlap
     ethr =  3.70E-09,  avg # of iterations =  2.3

     negative rho (up, down):  0.000E+00 3.431E-03

     total cpu time spent up to now is     2011.7 secs

     total energy              =   -3716.29658944 Ry
     estimated scf accuracy    <       0.00000281 Ry

     total magnetization       =    37.11 Bohr mag/cell
     absolute magnetization    =    39.50 Bohr mag/cell

     iteration # 13     ecut=    45.00 Ry     beta= 0.10
     Davidson diagonalization with overlap
     ethr =  1.17E-09,  avg # of iterations =  3.5

     negative rho (up, down):  0.000E+00 3.494E-03

     total cpu time spent up to now is     2030.9 secs

     total energy              =   -3716.29658990 Ry
     estimated scf accuracy    <       0.00000364 Ry

     total magnetization       =    37.11 Bohr mag/cell
     absolute magnetization    =    39.50 Bohr mag/cell

     iteration # 14     ecut=    45.00 Ry     beta= 0.10
     Davidson diagonalization with overlap
     ethr =  1.17E-09,  avg # of iterations =  4.1

     negative rho (up, down):  0.000E+00 3.492E-03

     total cpu time spent up to now is     2052.8 secs

     total energy              =   -3716.29660820 Ry
     estimated scf accuracy    <       0.00000086 Ry

     total magnetization       =    37.10 Bohr mag/cell
     absolute magnetization    =    39.50 Bohr mag/cell

     iteration # 15     ecut=    45.00 Ry     beta= 0.10
     Davidson diagonalization with overlap
     ethr =  3.58E-10,  avg # of iterations =  2.0

     negative rho (up, down):  0.000E+00 3.507E-03

     total cpu time spent up to now is     2069.1 secs

     total energy              =   -3716.29661437 Ry
     estimated scf accuracy    <       0.00000030 Ry

     total magnetization       =    37.10 Bohr mag/cell
     absolute magnetization    =    39.49 Bohr mag/cell

     iteration # 16     ecut=    45.00 Ry     beta= 0.10
     Davidson diagonalization with overlap
     ethr =  1.27E-10,  avg # of iterations =  3.9

     negative rho (up, down):  0.000E+00 3.522E-03

     total cpu time spent up to now is     2090.1 secs

     total energy              =   -3716.29662193 Ry
     estimated scf accuracy    <       0.00000040 Ry

     total magnetization       =    37.10 Bohr mag/cell
     absolute magnetization    =    39.49 Bohr mag/cell

     iteration # 17     ecut=    45.00 Ry     beta= 0.10
     Davidson diagonalization with overlap
     ethr =  1.27E-10,  avg # of iterations =  3.4

     negative rho (up, down):  0.000E+00 3.522E-03

     total cpu time spent up to now is     2109.7 secs

     total energy              =   -3716.29662952 Ry
     estimated scf accuracy    <       0.00000004 Ry

     total magnetization       =    37.10 Bohr mag/cell
     absolute magnetization    =    39.49 Bohr mag/cell

     iteration # 18     ecut=    45.00 Ry     beta= 0.10
     Davidson diagonalization with overlap
     ethr =  1.47E-11,  avg # of iterations =  2.9

     negative rho (up, down):  0.000E+00 3.540E-03

     Magnetic moment per site  (integrated on atomic sphere of radius R)
     atom   1 (R=0.176)  charge= 14.4023  magn=  2.1765
     atom   2 (R=0.176)  charge= 14.4023  magn=  2.1765
     atom   3 (R=0.176)  charge= 14.3087  magn=  2.6097
     atom   4 (R=0.176)  charge= 14.4023  magn=  2.1765
     atom   5 (R=0.176)  charge= 14.3087  magn=  2.6097
     atom   6 (R=0.176)  charge= 14.3087  magn=  2.6097
     atom   7 (R=0.176)  charge= 14.2458  magn=  2.8219
     atom   8 (R=0.176)  charge= 14.3032  magn=  2.6071
     atom   9 (R=0.176)  charge= 14.3032  magn=  2.6071
     atom  10 (R=0.176)  charge= 14.3032  magn=  2.6071
     atom  11 (R=0.176)  charge= 14.3032  magn=  2.6071
     atom  12 (R=0.176)  charge= 14.3032  magn=  2.6071
     atom  13 (R=0.176)  charge= 14.3032  magn=  2.6071
     atom  14 (R=0.176)  charge= 14.3032  magn=  2.6071
     atom  15 (R=0.176)  charge= 14.3032  magn=  2.6071

     total cpu time spent up to now is     2127.1 secs

     End of self-consistent calculation

 ------ SPIN UP ------------


          k = 0.0000 0.0000 0.0000 (  6451 PWs)   bands (ev):

   -72.3525 -72.1751 -72.1522 -72.1522 -72.1284 -72.1284 -72.1284 -72.1232
   -72.1232 -72.1232 -72.1184 -72.1131 -71.6325 -71.6325 -71.6291 -38.3855
   -38.3855 -38.3855 -38.2542 -38.2542 -38.2542 -38.2462 -38.2273 -38.2273
   -38.2273 -38.2066 -38.2066 -38.2066 -38.2008 -38.2008 -38.2008 -38.1814
   -38.1201 -38.1201 -38.1201 -38.1125 -38.1125 -38.0748 -38.0748 -38.0748
   -38.0456 -38.0456 -38.0456 -38.0356 -38.0356 -38.0333 -38.0333 -38.0333
   -38.0234 -38.0234 -38.0234 -37.6320 -37.6320 -37.6320 -37.6039 -37.6039
   -37.6039 -37.5920 -37.5920 -37.5920   8.1857  11.4741  11.4956  11.4956
    11.6065  11.6065  11.6299  11.6299  11.6299  11.8000  11.8000  11.8000
    12.2010  12.2010  12.4872  12.8055  12.8055  12.8055  12.9395  12.9395
    12.9395  13.0312  13.0312  13.0312  13.2655  13.2655  13.2655  13.3624
    13.6721  13.6721  13.6721  13.6748  13.6748  13.8926  13.8926  13.8926
    14.1678  14.1678  14.1678  14.2477  14.2477  14.2477  14.3016  14.3016
    14.3016  14.6755  14.6755  14.6755  14.8217  14.9743  14.9743  15.0701
    15.0701  15.1072  15.1072  15.1072  15.1154  15.2435  15.2435  15.2450
    15.2450  15.2638  15.2638  15.2638  15.3833  15.3833  15.4155  15.6662
    15.6662  15.6662  16.1875  16.1875  16.2498  16.2498  16.2498  16.2692
    16.2692  16.2692  16.4692  16.4692  16.4692  16.6956  16.7467  16.7467

          k = 0.0000 0.0000 0.2500 (  6495 PWs)   bands (ev):

   -72.3525 -72.1727 -72.1567 -72.1524 -72.1279 -72.1279 -72.1260 -72.1239
   -72.1239 -72.1228 -72.1188 -72.1135 -71.6327 -71.6322 -71.6294 -38.3859
   -38.3859 -38.3849 -38.2569 -38.2544 -38.2524 -38.2524 -38.2322 -38.2322
   -38.2255 -38.2137 -38.2137 -38.2041 -38.1913 -38.1913 -38.1858 -38.1856
   -38.1500 -38.1409 -38.1409 -38.1278 -38.0880 -38.0880 -38.0823 -38.0690
   -38.0465 -38.0454 -38.0430 -38.0430 -38.0414 -38.0358 -38.0277 -38.0277
   -38.0168 -38.0157 -38.0157 -37.6311 -37.6297 -37.6297 -37.6095 -37.6080
   -37.6080 -37.6003 -37.6003 -37.5967   8.4885  10.6424  11.5876  11.5899
    11.6561  11.6767  11.6767  11.7229  11.8067  11.8901  11.8901  11.9438
    12.2466  12.2723  12.5164  12.7330  12.7549  12.7549  12.8057  12.8489
    12.9958  12.9958  13.0536  13.1991  13.1991  13.2521  13.2521  13.3594
    13.5166  13.6791  13.7456  13.7456  13.8312  13.8312  13.8812  13.9130
    13.9498  13.9498  13.9999  14.1923  14.1923  14.4002  14.4103  14.4418
    14.5348  14.5348  14.6867  14.6867  14.7010  14.7662  14.8017  14.8017
    14.8770  14.9872  15.0707  15.0714  15.1187  15.1983  15.2076  15.2076
    15.2391  15.2656  15.2726  15.3198  15.3535  15.3783  15.3783  15.3895
    15.4066  15.6248  15.6787  15.6920  15.6920  16.1816  16.1816  16.1827
    16.2557  16.3295  16.4175  16.4175  16.5744  16.7734  16.9548  16.9548

          k = 0.0000 0.0000-0.5000 (  6480 PWs)   bands (ev):

   -72.3525 -72.1680 -72.1631 -72.1524 -72.1271 -72.1271 -72.1246 -72.1246
   -72.1237 -72.1221 -72.1195 -72.1142 -71.6327 -71.6314 -71.6302 -38.3822
   -38.3822 -38.3791 -38.2645 -38.2468 -38.2468 -38.2409 -38.2234 -38.2181
   -38.2181 -38.2112 -38.2112 -38.2060 -38.2060 -38.1967 -38.1913 -38.1727
   -38.1707 -38.1558 -38.1558 -38.1462 -38.0993 -38.0993 -38.0719 -38.0634
   -38.0510 -38.0468 -38.0432 -38.0384 -38.0373 -38.0373 -38.0240 -38.0240
   -38.0091 -38.0051 -38.0051 -37.6268 -37.6240 -37.6240 -37.6146 -37.6106
   -37.6106 -37.6036 -37.6036 -37.5948   9.2639   9.4913  11.7229  11.7468
    11.7717  11.7717  11.8525  11.9315  11.9315  11.9594  12.0249  12.1629
    12.1820  12.2741  12.4034  12.4401  12.4703  12.6685  12.7066  12.7066
    13.1136  13.1136  13.3640  13.3640  13.3797  13.4026  13.4228  13.5254
    13.5254  13.6412  13.6412  13.6781  13.6961  13.6961  13.8045  13.8562
    13.8572  13.8572  13.8778  14.1074  14.1074  14.2586  14.2994  14.2994
    14.3543  14.3739  14.5918  14.5976  14.5980  14.5980  14.7257  14.7257
    14.8061  14.8744  14.9145  15.1766  15.1766  15.1809  15.1815  15.1815
    15.2182  15.2426  15.2473  15.2561  15.3139  15.3181  15.3479  15.4059
    15.4866  15.7655  15.7959  15.7959  15.8400  15.8400  15.8793  15.9981
    16.1235  16.3825  16.6284  16.6284  16.6815  16.7197  16.8026  16.8026

          k = 0.0000 0.2500 0.2500 (  6500 PWs)   bands (ev):

   -72.3525 -72.1705 -72.1577 -72.1547 -72.1293 -72.1273 -72.1237 -72.1234
   -72.1234 -72.1231 -72.1194 -72.1142 -71.6324 -71.6321 -71.6298 -38.3837
   -38.3832 -38.3819 -38.2613 -38.2545 -38.2501 -38.2428 -38.2339 -38.2307
   -38.2230 -38.2107 -38.2064 -38.2056 -38.2040 -38.1968 -38.1829 -38.1788
   -38.1730 -38.1472 -38.1471 -38.1124 -38.0903 -38.0869 -38.0799 -38.0788
   -38.0567 -38.0511 -38.0498 -38.0489 -38.0313 -38.0292 -38.0285 -38.0174
   -38.0173 -38.0165 -38.0120 -37.6305 -37.6257 -37.6247 -37.6147 -37.6073
   -37.6042 -37.6033 -37.6024 -37.5990   8.7895  10.7438  10.9264  11.5067
    11.7722  11.7805  11.8191  11.8469  11.9031  12.0309  12.0337  12.0812
    12.3345  12.3415  12.5758  12.6445  12.6681  12.7992  12.8697  12.8954
    12.9477  13.0279  13.0780  13.0931  13.1245  13.1278  13.3046  13.3832
    13.5429  13.5827  13.6724  13.6867  13.7405  13.7825  13.8116  13.9004
    13.9094  14.0011  14.0289  14.1496  14.2087  14.3410  14.3551  14.4214
    14.4310  14.4779  14.5119  14.5235  14.6174  14.6488  14.7250  14.7825
    14.8004  14.8873  14.9033  14.9677  15.0313  15.0608  15.1584  15.1866
    15.1996  15.2555  15.2682  15.2684  15.3391  15.3473  15.3609  15.4194
    15.5333  15.5422  15.5734  15.5908  15.6925  15.6986  15.7122  15.8353
    15.8867  15.9642  16.3219  16.6657  16.7001  17.7160  17.7796  17.9818

          k = 0.0000 0.2500-0.5000 (  6452 PWs)   bands (ev):

   -72.3524 -72.1661 -72.1624 -72.1552 -72.1301 -72.1266 -72.1241 -72.1225
   -72.1225 -72.1214 -72.1200 -72.1151 -71.6322 -71.6313 -71.6305 -38.3795
   -38.3783 -38.3769 -38.2647 -38.2610 -38.2381 -38.2362 -38.2200 -38.2191
   -38.2148 -38.2136 -38.2090 -38.2087 -38.1961 -38.1956 -38.1905 -38.1844
   -38.1750 -38.1511 -38.1467 -38.1189 -38.0923 -38.0918 -38.0703 -38.0648
   -38.0577 -38.0523 -38.0506 -38.0469 -38.0353 -38.0291 -38.0192 -38.0157
   -38.0156 -38.0150 -38.0031 -37.6219 -37.6217 -37.6182 -37.6123 -37.6083
   -37.6082 -37.6041 -37.6026 -37.5963   9.5369   9.7467  11.1788  11.3234
    11.9371  11.9732  12.0520  12.1058  12.1173  12.1362  12.1632  12.2612
    12.2912  12.3670  12.4530  12.4824  12.5332  12.7033  12.8098  12.8357
    13.0995  13.1255  13.1920  13.1984  13.2370  13.2577  13.2885  13.3877
    13.4870  13.5072  13.6282  13.6532  13.6942  13.7225  13.7292  13.7990
    13.8070  13.8874  13.9349  13.9623  13.9950  14.0718  14.1058  14.1664
    14.2795  14.4762  14.5450  14.5516  14.5646  14.6291  14.7625  14.7722
    14.8094  14.8453  14.8635  14.8914  14.9067  14.9912  15.0049  15.1320
    15.2133  15.2286  15.2586  15.2596  15.2854  15.3202  15.3558  15.3637
    15.4205  15.5247  15.5248  15.5805  15.6004  15.6414  15.6873  15.7725
    15.9018  16.1830  16.2156  17.1759  17.1993  17.2954  17.3690  18.9414

          k = 0.0000-0.5000-0.5000 (  6496 PWs)   bands (ev):

   -72.3524 -72.1618 -72.1618 -72.1606 -72.1321 -72.1259 -72.1234 -72.1234
   -72.1208 -72.1201 -72.1201 -72.1168 -71.6314 -71.6314 -71.6314 -38.3800
   -38.3747 -38.3747 -38.2725 -38.2672 -38.2290 -38.2250 -38.2250 -38.2246
   -38.2246 -38.2217 -38.2149 -38.2059 -38.1980 -38.1980 -38.1916 -38.1916
   -38.1761 -38.1516 -38.1409 -38.0828 -38.0817 -38.0807 -38.0807 -38.0708
   -38.0687 -38.0687 -38.0598 -38.0547 -38.0387 -38.0387 -38.0363 -38.0302
   -38.0124 -38.0124 -38.0051 -37.6241 -37.6169 -37.6156 -37.6100 -37.6100
   -37.6095 -37.6095 -37.6049 -37.6019  10.2528  10.2528  10.3001  10.7163
    12.1588  12.1588  12.1987  12.2496  12.3175  12.3175  12.3958  12.4043
    12.4703  12.4703  12.5776  12.6957  12.7281  12.7281  12.7349  12.7598
    12.9473  12.9629  12.9629  12.9832  13.0712  13.1011  13.1011  13.3730
    13.4929  13.4929  13.5505  13.5566  13.5691  13.6438  13.6677  13.6923
    13.6923  13.8048  13.8048  13.8728  13.8728  13.8935  13.9167  14.1895
    14.2421  14.4510  14.4727  14.4727  14.5110  14.6722  14.7490  14.7490
    14.7731  14.8242  14.8431  14.8431  14.8443  15.0023  15.0023  15.0183
    15.0183  15.0710  15.1090  15.2005  15.2290  15.2290  15.2729  15.2811
    15.3629  15.3629  15.3824  15.5130  15.5174  15.6026  15.6026  15.8405
    15.8405  16.2830  16.3239  18.0475  18.0703  18.0703  18.1238  18.3018

          k = 0.2500 0.2500 0.2500 (  6493 PWs)   bands (ev):

   -72.3524 -72.1685 -72.1573 -72.1573 -72.1300 -72.1264 -72.1264 -72.1241
   -72.1209 -72.1209 -72.1200 -72.1147 -71.6320 -71.6320 -71.6302 -38.3805
   -38.3793 -38.3793 -38.2630 -38.2500 -38.2419 -38.2419 -38.2399 -38.2192
   -38.2192 -38.2133 -38.2133 -38.2057 -38.1989 -38.1989 -38.1879 -38.1743
   -38.1703 -38.1703 -38.1296 -38.1033 -38.1033 -38.0933 -38.0933 -38.0703
   -38.0663 -38.0565 -38.0565 -38.0353 -38.0353 -38.0315 -38.0159 -38.0159
   -38.0155 -38.0155 -38.0138 -37.6310 -37.6203 -37.6203 -37.6179 -37.6065
   -37.6065 -37.6033 -37.6033 -37.5996   9.0831  10.9621  10.9621  11.2130
    11.6970  11.6970  11.8124  12.0023  12.0023  12.1185  12.2244  12.2244
    12.4987  12.4987  12.6123  12.6300  12.6801  12.8069  12.8069  12.9219
    12.9219  13.0237  13.0246  13.1599  13.1599  13.2040  13.2040  13.4624
    13.4628  13.4795  13.4795  13.5627  13.5627  13.7225  13.7225  13.8415
    13.8415  13.8564  13.8661  14.0396  14.0396  14.0692  14.2421  14.2421
    14.3043  14.3043  14.4739  14.6026  14.6026  14.6633  14.6903  14.8189
    14.8189  14.8448  14.9230  14.9921  15.0174  15.0174  15.1093  15.1093
    15.1496  15.2640  15.2640  15.2944  15.2944  15.3154  15.3360  15.3360
    15.4384  15.4853  15.4853  15.5998  15.5998  15.7498  15.8321  15.8321
    15.9771  15.9771  15.9855  16.7156  16.7156  16.8009  18.6585  18.6585

          k = 0.2500 0.2500-0.5000 (  6456 PWs)   bands (ev):

   -72.3524 -72.1646 -72.1618 -72.1569 -72.1302 -72.1277 -72.1256 -72.1245
   -72.1206 -72.1199 -72.1189 -72.1154 -71.6320 -71.6314 -71.6308 -38.3768
   -38.3767 -38.3743 -38.2631 -38.2554 -38.2453 -38.2307 -38.2266 -38.2218
   -38.2152 -38.2113 -38.2110 -38.2073 -38.1934 -38.1892 -38.1862 -38.1771
   -38.1752 -38.1686 -38.1235 -38.1122 -38.1063 -38.0915 -38.0808 -38.0735
   -38.0690 -38.0661 -38.0534 -38.0518 -38.0279 -38.0182 -38.0169 -38.0151
   -38.0141 -38.0131 -38.0050 -37.6269 -37.6210 -37.6144 -37.6116 -37.6106
   -37.6047 -37.6043 -37.6040 -37.5993   9.8121  10.0068  11.3926  11.4463
    11.4502  11.6710  12.2236  12.2444  12.2816  12.2917  12.3036  12.3465
    12.4111  12.4646  12.4954  12.5884  12.6224  12.7491  12.8160  12.9397
    13.0622  13.1110  13.1227  13.1314  13.1761  13.2438  13.2662  13.2738
    13.3586  13.4038  13.4737  13.5449  13.5939  13.5963  13.6323  13.6402
    13.6622  13.6903  13.6944  13.7644  13.7752  13.8500  13.8605  14.0372
    14.2283  14.3214  14.4197  14.4896  14.6416  14.7012  14.7702  14.7778
    14.8410  14.8798  14.9052  14.9157  14.9188  15.0948  15.1314  15.1473
    15.1582  15.1857  15.2656  15.2986  15.3033  15.3085  15.3406  15.3603
    15.4201  15.4907  15.5189  15.5573  15.6056  15.8598  15.9089  15.9189
    15.9460  15.9971  16.0380  16.1804  16.2398  17.8666  18.0051  19.4274

          k = 0.2500-0.5000-0.5000 (  6472 PWs)   bands (ev):

   -72.3524 -72.1612 -72.1612 -72.1606 -72.1313 -72.1267 -72.1263 -72.1263
   -72.1211 -72.1176 -72.1176 -72.1164 -71.6314 -71.6314 -71.6314 -38.3748
   -38.3720 -38.3720 -38.2607 -38.2592 -38.2336 -38.2336 -38.2237 -38.2208
   -38.2187 -38.2187 -38.2088 -38.2064 -38.1916 -38.1916 -38.1809 -38.1809
   -38.1748 -38.1674 -38.1209 -38.1035 -38.1009 -38.0866 -38.0866 -38.0818
   -38.0818 -38.0818 -38.0778 -38.0341 -38.0293 -38.0293 -38.0210 -38.0141
   -38.0094 -38.0094 -38.0045 -37.6302 -37.6174 -37.6152 -37.6152 -37.6086
   -37.6065 -37.6046 -37.6046 -37.6029  10.5251  10.5251  10.5601  10.9387
    11.9340  12.0157  12.0157  12.2441  12.3540  12.3540  12.4477  12.6668
    12.6668  12.7224  12.7291  12.7308  12.7796  12.7944  12.7944  12.8312
    12.9220  12.9652  12.9652  12.9925  13.0322  13.0322  13.1305  13.2029
    13.2925  13.2925  13.3279  13.3892  13.4661  13.4797  13.4797  13.4833
    13.5247  13.5247  13.5812  13.6292  13.6861  13.6861  13.7028  13.8079
    13.8228  14.2872  14.2872  14.3736  14.8036  14.8738  14.8775  14.8986
    14.9021  14.9021  15.0118  15.0118  15.0791  15.0791  15.1049  15.1482
    15.2047  15.2057  15.2759  15.2759  15.3406  15.3421  15.3492  15.3492
    15.3753  15.3753  15.4611  15.5148  15.5148  15.5462  15.6855  15.7769
    15.7769  16.0317  16.0793  16.8911  16.9004  16.9004  16.9752  20.3646

          k =-0.5000-0.5000-0.5000 (  6488 PWs)   bands (ev):

   -72.3523 -72.1608 -72.1608 -72.1608 -72.1296 -72.1282 -72.1282 -72.1282
   -72.1214 -72.1161 -72.1161 -72.1161 -71.6313 -71.6313 -71.6313 -38.3690
   -38.3690 -38.3690 -38.2575 -38.2375 -38.2375 -38.2375 -38.2370 -38.2102
   -38.2102 -38.2102 -38.2004 -38.2004 -38.1897 -38.1897 -38.1897 -38.1775
   -38.1775 -38.1775 -38.1167 -38.1167 -38.0984 -38.0945 -38.0945 -38.0945
   -38.0939 -38.0939 -38.0939 -38.0177 -38.0177 -38.0177 -38.0148 -38.0148
   -38.0148 -38.0084 -38.0084 -37.6327 -37.6167 -37.6167 -37.6167 -37.6096
   -37.6096 -37.6056 -37.6056 -37.6056  11.2083  11.2083  11.2083  11.2510
    11.2843  11.2843  11.2843  12.1035  12.7815  12.7815  12.7815  12.8079
    12.8079  12.8079  12.8147  12.8147  12.8147  12.8914  12.8914  12.9167
    12.9167  12.9167  12.9867  12.9867  13.0273  13.0273  13.0273  13.1684
    13.1735  13.1735  13.1735  13.2575  13.2575  13.2575  13.2709  13.2709
    13.2709  13.3394  13.3394  13.3394  13.3625  13.3971  13.3971  13.6007
    13.6007  14.2434  14.2434  14.2434  14.9346  14.9346  14.9874  14.9874
    14.9874  15.0798  15.0798  15.0798  15.0941  15.0941  15.0941  15.1758
    15.1758  15.2983  15.2983  15.2983  15.4177  15.4177  15.4177  15.4746
    15.4746  15.4746  15.6792  15.6792  15.6792  15.7965  15.7965  15.8354
    15.8354  15.8354  15.8592  16.2132  16.2132  16.2132  16.3559  22.4902

 ------ SPIN DOWN ----------


          k = 0.0000 0.0000 0.0000 (  6451 PWs)   bands (ev):

   -68.9321 -68.8789 -68.8789 -68.8735 -68.8735 -68.8718 -68.8603 -68.8603
   -68.8603 -68.8545 -68.8545 -68.8545 -68.8488 -68.8233 -68.8051 -35.2149
   -35.2149 -35.2149 -35.1615 -35.1615 -35.1615 -35.0465 -35.0465 -35.0465
   -35.0290 -35.0290 -35.0183 -35.0183 -35.0183 -35.0006 -35.0006 -35.0006
   -34.9827 -34.9827 -34.9827 -34.9542 -34.9542 -34.9542 -34.9528 -34.9500
   -34.9500 -34.9500 -34.9390 -34.9390 -34.9115 -34.9115 -34.9115 -34.8893
   -34.8893 -34.8893 -34.8750 -34.8137 -34.8137 -34.8137 -34.7960 -34.7960
   -34.7960 -34.7917 -34.7917 -34.7917   8.3268  12.3412  12.3412  12.4425
    12.4425  12.4425  12.6308  13.0518  13.0518  13.1375  13.1375  13.1375
    13.7046  13.9410  13.9410  14.7465  14.7465  14.7465  14.8561  14.8561
    14.8561  14.9911  14.9911  14.9911  15.6257  15.6257  15.6257  15.7229
    15.7495  15.7495  15.7495  16.1563  16.1563  16.4032  16.4032  16.4032
    16.4153  16.4153  16.4153  16.5552  16.5552  16.5552  16.5737  16.5737
    16.5737  16.9712  16.9712  16.9712  17.2960  17.2960  17.2960  17.5189
    17.5189  17.6340  17.6340  17.6340  17.8537  17.8746  17.8746  17.8746
    18.0761  18.0761  18.0859  18.2311  18.2311  18.3965  18.3965  18.4183
    18.4183  18.4183  18.4206  18.4206  18.4239  18.6438  18.6438  18.6438
    18.8403  18.8403  18.9725  18.9725  18.9725  18.9935  18.9935  18.9935

          k = 0.0000 0.0000 0.2500 (  6495 PWs)   bands (ev):

   -68.9272 -68.8935 -68.8781 -68.8743 -68.8738 -68.8725 -68.8597 -68.8597
   -68.8551 -68.8551 -68.8539 -68.8494 -68.8467 -68.8246 -68.8068 -35.2060
   -35.2060 -35.2060 -35.1539 -35.1501 -35.1501 -35.0817 -35.0817 -35.0775
   -35.0752 -35.0489 -35.0489 -35.0404 -35.0253 -35.0253 -35.0072 -34.9881
   -34.9756 -34.9756 -34.9506 -34.9504 -34.9497 -34.9447 -34.9354 -34.9284
   -34.9284 -34.9219 -34.9219 -34.9104 -34.9009 -34.8993 -34.8993 -34.8920
   -34.8796 -34.8765 -34.8765 -34.8290 -34.8201 -34.8201 -34.8149 -34.8145
   -34.8145 -34.8131 -34.8104 -34.8104   8.6338  10.9117  12.5078  12.6092
    12.6092  12.6858  13.0641  13.1053  13.1053  13.1229  13.3441  13.4711
    13.8309  14.0403  14.0749  14.5300  14.5990  14.7457  14.7457  15.0232
    15.0232  15.0611  15.0704  15.0704  15.1143  15.4753  15.4753  15.5515
    15.6406  15.7498  15.7498  16.0010  16.0477  16.0477  16.1507  16.1716
    16.2129  16.2129  16.3234  16.3597  16.3597  16.5097  16.5878  16.5878
    16.6763  16.9246  16.9246  16.9523  17.0318  17.1775  17.1775  17.3683
    17.5467  17.5467  17.6233  17.9044  17.9256  17.9690  17.9690  17.9723
    17.9751  18.0746  18.1231  18.1553  18.2859  18.3900  18.3967  18.4055
    18.4055  18.4087  18.4260  18.5390  18.6256  18.6693  18.7591  18.8061
    18.8061  18.8645  18.8752  18.8752  18.9028  18.9963  19.0322  19.0501

          k = 0.0000 0.0000-0.5000 (  6480 PWs)   bands (ev):

   -68.9149 -68.9114 -68.8768 -68.8757 -68.8737 -68.8728 -68.8588 -68.8588
   -68.8560 -68.8560 -68.8531 -68.8503 -68.8353 -68.8284 -68.8088 -35.1631
   -35.1597 -35.1597 -35.1508 -35.1508 -35.1393 -35.1360 -35.1197 -35.1197
   -35.0957 -35.0893 -35.0893 -35.0488 -35.0152 -35.0148 -35.0148 -34.9955
   -34.9955 -34.9765 -34.9584 -34.9508 -34.9482 -34.9467 -34.9244 -34.9244
   -34.8886 -34.8869 -34.8845 -34.8777 -34.8764 -34.8764 -34.8728 -34.8728
   -34.8716 -34.8700 -34.8550 -34.8550 -34.8401 -34.8401 -34.8334 -34.8324
   -34.8324 -34.8250 -34.8230 -34.8230   9.4233   9.6640  12.7462  12.8365
    12.9177  12.9177  12.9626  12.9626  13.0375  13.2673  13.7678  13.8013
    13.9931  14.0554  14.0894  14.2508  14.2896  14.6490  14.7554  14.7554
    15.0828  15.0828  15.3465  15.3618  15.4365  15.4365  15.4608  15.4608
    15.4927  15.4927  15.6743  15.6851  15.6851  15.7033  15.7281  15.9611
    15.9611  15.9981  16.0503  16.0503  16.1371  16.1663  16.4121  16.4121
    16.8285  17.1184  17.1184  17.2126  17.3798  17.3798  17.3822  17.5253
    17.5799  17.6462  17.6927  17.7112  17.7112  17.8289  17.8289  18.0496
    18.1950  18.2509  18.3122  18.3243  18.3301  18.3745  18.3946  18.4056
    18.4116  18.4116  18.4507  18.5114  18.5114  18.5152  18.5501  18.6753
    18.7127  18.7551  18.8121  19.0083  19.0312  19.0312  19.1064  19.1064

          k = 0.0000 0.2500 0.2500 (  6500 PWs)   bands (ev):

   -68.9226 -68.8945 -68.8872 -68.8776 -68.8740 -68.8738 -68.8591 -68.8545
   -68.8545 -68.8535 -68.8508 -68.8501 -68.8442 -68.8261 -68.8080 -35.2004
   -35.1909 -35.1834 -35.1583 -35.1392 -35.1316 -35.1131 -35.1104 -35.1015
   -35.0873 -35.0593 -35.0422 -35.0287 -35.0230 -35.0036 -35.0029 -34.9919
   -34.9866 -34.9819 -34.9776 -34.9622 -34.9548 -34.9543 -34.9364 -34.9332
   -34.9325 -34.9312 -34.9068 -34.9010 -34.8976 -34.8819 -34.8787 -34.8748
   -34.8662 -34.8605 -34.8599 -34.8500 -34.8386 -34.8294 -34.8228 -34.8211
   -34.8180 -34.8143 -34.8081 -34.7974   8.9393  11.0470  11.2597  12.5359
    12.7844  12.7945  13.2306  13.3144  13.3503  13.4459  13.5647  13.6488
    13.9622  14.1185  14.1822  14.4471  14.5273  14.8123  14.8412  14.9219
    14.9571  15.0346  15.0701  15.0859  15.0954  15.1803  15.2957  15.4885
    15.6372  15.6707  15.7261  15.7919  15.8101  15.8430  15.9339  15.9829
    16.0319  16.0516  16.1070  16.1544  16.2517  16.4449  16.4931  16.5504
    16.8054  16.8656  16.8701  17.0957  17.1333  17.2449  17.2810  17.3772
    17.3976  17.4521  17.6147  17.7646  17.9117  17.9553  18.0105  18.0352
    18.0591  18.1320  18.1431  18.2440  18.2460  18.2961  18.2978  18.3370
    18.3896  18.3945  18.4074  18.4518  18.4819  18.5083  18.5748  18.5863
    18.6073  18.7260  19.0076  19.0463  19.1686  19.5847  19.6978  19.8139

          k = 0.0000 0.2500-0.5000 (  6452 PWs)   bands (ev):

   -68.9112 -68.9084 -68.8855 -68.8827 -68.8740 -68.8739 -68.8582 -68.8554
   -68.8536 -68.8516 -68.8509 -68.8500 -68.8352 -68.8306 -68.8093 -35.1700
   -35.1660 -35.1512 -35.1510 -35.1471 -35.1416 -35.1358 -35.1199 -35.1168
   -35.0837 -35.0697 -35.0559 -35.0332 -35.0225 -35.0158 -35.0064 -34.9890
   -34.9886 -34.9796 -34.9611 -34.9572 -34.9571 -34.9435 -34.9433 -34.9318
   -34.9263 -34.9231 -34.9079 -34.8964 -34.8947 -34.8827 -34.8638 -34.8594
   -34.8583 -34.8527 -34.8459 -34.8433 -34.8382 -34.8325 -34.8320 -34.8212
   -34.8162 -34.8148 -34.8100 -34.8079   9.7091   9.9361  11.6797  11.9221
    13.0242  13.1513  13.1732  13.3349  13.7390  13.7827  13.8281  13.8283
    14.0197  14.0739  14.2058  14.3169  14.3278  14.6567  14.8479  14.8558
    15.0657  15.0694  15.1008  15.1313  15.1902  15.2385  15.2557  15.3698
    15.3722  15.4686  15.6094  15.6234  15.6806  15.6899  15.6921  15.7881
    15.8015  15.8191  15.9540  16.0741  16.1384  16.1923  16.2562  16.6020
    16.7526  17.0688  17.2203  17.2591  17.2890  17.3287  17.3738  17.4204
    17.5317  17.5447  17.5847  17.6148  17.6209  17.6725  17.8015  18.0348
    18.0589  18.0804  18.1549  18.2382  18.2991  18.2993  18.3015  18.3807
    18.3862  18.4156  18.4449  18.4475  18.4593  18.4614  18.5086  18.6618
    18.6991  18.8391  18.8712  19.3162  19.4346  19.4737  19.5282  20.3187

          k = 0.0000-0.5000-0.5000 (  6496 PWs)   bands (ev):

   -68.9037 -68.9037 -68.8969 -68.8901 -68.8740 -68.8740 -68.8573 -68.8546
   -68.8546 -68.8518 -68.8486 -68.8419 -68.8350 -68.8350 -68.8098 -35.1779
   -35.1549 -35.1549 -35.1468 -35.1468 -35.1467 -35.1462 -35.1312 -35.1148
   -35.0803 -35.0213 -35.0213 -35.0123 -35.0123 -35.0019 -35.0019 -34.9954
   -34.9936 -34.9931 -34.9794 -34.9703 -34.9673 -34.9673 -34.9667 -34.9661
   -34.9483 -34.9392 -34.9392 -34.9120 -34.9079 -34.8725 -34.8599 -34.8599
   -34.8597 -34.8597 -34.8394 -34.8394 -34.8367 -34.8324 -34.8287 -34.8228
   -34.8082 -34.8082 -34.7986 -34.7983  10.5099  10.5099  10.5270  11.0225
    13.5395  13.5440  13.5491  13.5491  13.6369  13.7229  13.7229  14.0481
    14.0481  14.2307  14.2570  14.5893  14.6008  14.6136  14.6136  14.7007
    14.8505  14.9351  14.9630  14.9630  15.1044  15.1180  15.1180  15.3656
    15.3865  15.3865  15.4601  15.4601  15.4722  15.4877  15.5932  15.6174
    15.7358  15.7811  15.9455  16.0812  16.0812  16.3769  16.3769  16.5615
    16.7136  16.9894  16.9894  17.0141  17.1710  17.2291  17.2291  17.4840
    17.5335  17.5477  17.7044  17.7044  17.7438  17.7799  17.7799  17.7897
    17.9231  17.9231  18.0382  18.0968  18.1674  18.2353  18.2890  18.2890
    18.3070  18.3070  18.3760  18.4251  18.4357  18.4357  18.4883  18.7490
    18.7490  18.9594  19.0037  19.9964  20.0575  20.1384  20.1384  20.3062

          k = 0.2500 0.2500 0.2500 (  6493 PWs)   bands (ev):

   -68.9183 -68.8923 -68.8923 -68.8794 -68.8779 -68.8779 -68.8574 -68.8543
   -68.8520 -68.8520 -68.8502 -68.8450 -68.8450 -68.8277 -68.8088 -35.1872
   -35.1711 -35.1711 -35.1479 -35.1479 -35.1282 -35.1183 -35.1183 -35.1084
   -35.0616 -35.0616 -35.0380 -35.0380 -35.0297 -35.0297 -35.0279 -35.0181
   -35.0064 -34.9783 -34.9688 -34.9688 -34.9454 -34.9454 -34.9219 -34.9219
   -34.9191 -34.9191 -34.9164 -34.9010 -34.8955 -34.8948 -34.8948 -34.8785
   -34.8565 -34.8543 -34.8447 -34.8447 -34.8310 -34.8310 -34.8207 -34.8207
   -34.8178 -34.8169 -34.8096 -34.8096   9.2386  11.2981  11.2981  11.6061
    12.7217  12.7217  12.9496  13.6938  13.6938  13.7541  13.8121  13.8121
    14.1226  14.2410  14.2410  14.2704  14.5396  14.7920  14.8214  14.8214
    14.9908  14.9908  15.0750  15.0966  15.0966  15.1926  15.1926  15.4497
    15.5664  15.5664  15.6158  15.6158  15.6601  15.7631  15.7767  15.7833
    15.7833  15.8506  15.8506  16.0773  16.0773  16.3069  16.3069  16.4242
    16.7556  16.9101  16.9101  17.2741  17.2914  17.3414  17.4200  17.4200
    17.4965  17.4965  17.5556  17.8323  17.8323  17.9211  17.9689  17.9689
    17.9738  18.1780  18.1780  18.2635  18.2839  18.2839  18.3319  18.3319
    18.3712  18.3835  18.3835  18.4664  18.4664  18.5794  18.5794  18.5880
    18.6186  18.6186  18.6627  19.0489  19.0489  19.1062  20.3754  20.3754

          k = 0.2500 0.2500-0.5000 (  6456 PWs)   bands (ev):

   -68.9079 -68.9055 -68.8879 -68.8836 -68.8792 -68.8790 -68.8583 -68.8545
   -68.8512 -68.8502 -68.8492 -68.8465 -68.8356 -68.8325 -68.8095 -35.1611
   -35.1606 -35.1603 -35.1422 -35.1404 -35.1392 -35.1216 -35.1160 -35.0840
   -35.0814 -35.0757 -35.0596 -35.0394 -35.0325 -35.0300 -35.0275 -35.0059
   -34.9843 -34.9825 -34.9825 -34.9782 -34.9530 -34.9511 -34.9434 -34.9272
   -34.9181 -34.9022 -34.9022 -34.8959 -34.8919 -34.8713 -34.8686 -34.8686
   -34.8664 -34.8608 -34.8470 -34.8381 -34.8343 -34.8283 -34.8236 -34.8199
   -34.8198 -34.8142 -34.8123 -34.8108   9.9944  10.2089  11.8977  11.9689
    12.0154  12.3349  13.3531  13.6176  13.9433  13.9560  13.9799  14.0509
    14.1074  14.2699  14.3699  14.3959  14.4479  14.6937  14.8986  14.9254
    14.9585  14.9742  14.9969  15.1364  15.1454  15.1668  15.2082  15.2156
    15.2429  15.4322  15.5084  15.5711  15.5747  15.5923  15.6339  15.6451
    15.7441  15.7626  15.7817  15.8813  15.9803  16.0180  16.0769  16.5477
    16.5874  16.9682  17.0426  17.0876  17.3790  17.3940  17.4391  17.4917
    17.6513  17.6748  17.6893  17.7433  17.8008  17.8480  17.8844  18.1180
    18.1442  18.1815  18.2004  18.2077  18.2495  18.2877  18.3297  18.3397
    18.3678  18.3973  18.4022  18.4065  18.4927  18.5229  18.5523  18.5999
    18.6045  18.6075  18.6280  18.6760  18.7423  19.9575  20.0637  20.9356

          k = 0.2500-0.5000-0.5000 (  6472 PWs)   bands (ev):

   -68.9008 -68.9008 -68.8961 -68.8893 -68.8805 -68.8805 -68.8596 -68.8555
   -68.8495 -68.8495 -68.8458 -68.8403 -68.8364 -68.8364 -68.8097 -35.1625
   -35.1423 -35.1423 -35.1402 -35.1331 -35.1266 -35.1266 -35.1168 -35.1008
   -35.0687 -35.0545 -35.0545 -35.0520 -35.0320 -35.0320 -35.0311 -35.0185
   -35.0138 -35.0027 -35.0027 -34.9774 -34.9508 -34.9508 -34.9464 -34.9185
   -34.9082 -34.9082 -34.9053 -34.8956 -34.8901 -34.8746 -34.8746 -34.8680
   -34.8543 -34.8543 -34.8391 -34.8385 -34.8362 -34.8362 -34.8311 -34.8235
   -34.8190 -34.8190 -34.8138 -34.8133  10.7892  10.7892  10.7953  11.2489
    12.5569  12.6398  12.6398  13.1507  14.2415  14.2415  14.3226  14.3543
    14.3543  14.4361  14.5528  14.6086  14.6255  14.6877  14.6877  14.7737
    14.8150  14.9228  14.9228  15.0059  15.0911  15.0911  15.1849  15.2105
    15.2613  15.2613  15.3938  15.4354  15.4354  15.4960  15.5174  15.6112
    15.6320  15.6562  15.7438  15.7896  15.7896  16.0273  16.0302  16.0302
    16.1905  16.9729  16.9729  17.1006  17.5914  17.6117  17.6571  17.6571
    17.6837  17.8067  17.8563  17.8563  17.8617  17.9085  17.9085  17.9967
    17.9967  18.0448  18.0558  18.1866  18.2207  18.2381  18.2616  18.2616
    18.2876  18.3391  18.3391  18.3854  18.3854  18.3899  18.4209  18.5747
    18.5747  18.5989  18.7229  19.2236  19.2236  19.2641  19.2739  21.8840

          k =-0.5000-0.5000-0.5000 (  6488 PWs)   bands (ev):

   -68.8953 -68.8953 -68.8953 -68.8885 -68.8885 -68.8885 -68.8616 -68.8579
   -68.8443 -68.8443 -68.8443 -68.8391 -68.8391 -68.8391 -68.8095 -35.1320
   -35.1320 -35.1088 -35.1088 -35.1088 -35.0982 -35.0982 -35.0982 -35.0957
   -35.0957 -35.0957 -35.0730 -35.0730 -35.0730 -35.0657 -35.0657 -35.0602
   -35.0301 -34.9930 -34.9930 -34.9930 -34.9438 -34.9438 -34.9438 -34.8809
   -34.8809 -34.8809 -34.8734 -34.8734 -34.8734 -34.8702 -34.8702 -34.8660
   -34.8660 -34.8660 -34.8457 -34.8438 -34.8402 -34.8402 -34.8391 -34.8391
   -34.8391 -34.8325 -34.8325 -34.8325  11.5196  11.5196  11.5196  11.5527
    11.6167  11.6167  11.6167  12.5861  14.6246  14.6246  14.6246  14.6785
    14.6785  14.6785  14.7761  14.7761  14.7788  14.7788  14.7788  14.8740
    14.8740  14.8740  14.9479  14.9479  14.9479  15.1134  15.1134  15.2388
    15.2388  15.2388  15.3670  15.3670  15.3670  15.3716  15.3735  15.4442
    15.4442  15.4927  15.4927  15.4927  15.6402  15.6402  15.6402  15.6920
    15.6920  17.0036  17.0036  17.0036  17.8758  17.8758  17.8758  17.8927
    17.8927  17.9634  17.9634  18.0432  18.0432  18.0432  18.0654  18.0654
    18.0654  18.2279  18.2279  18.2279  18.2370  18.2370  18.2370  18.3447
    18.3447  18.3447  18.3648  18.3648  18.3648  18.4010  18.4010  18.4010
    18.4166  18.4166  18.4214  18.5712  18.5712  18.5712  18.9113  23.6200

     the Fermi energy is    16.2436 ev

!    total energy              =   -3716.29665951 Ry
     estimated scf accuracy    <       0.00000003 Ry
     smearing contrib. (-TS)   =       0.01729809 Ry
     internal energy E=F+TS    =   -3716.31395760 Ry

     The total energy is F=E-TS. E is the sum of the following terms:
     one-electron contribution =   -1859.60684935 Ry
     hartree contribution      =    1054.51799544 Ry
     xc contribution           =    -416.15106637 Ry
     ewald contribution        =   -2495.07403732 Ry

     total magnetization       =    37.10 Bohr mag/cell
     absolute magnetization    =    39.49 Bohr mag/cell

     convergence has been achieved in  18 iterations

     negative rho (up, down):  0.000E+00 3.540E-03

     Forces acting on atoms (cartesian axes, Ry/au):

     atom    1 type  1   force =     0.00000000    0.00000000    0.00000000
     atom    2 type  1   force =     0.00000000    0.00000000    0.00000000
     atom    3 type  1   force =     0.00000000    0.00000000    0.00000000
     atom    4 type  1   force =     0.00000000    0.00000000    0.00000000
     atom    5 type  1   force =     0.00000000    0.00000000    0.00000000
     atom    6 type  1   force =     0.00000000    0.00000000    0.00000000
     atom    7 type  1   force =     0.00000000    0.00000000    0.00000000
     atom    8 type  1   force =     0.00039880    0.00039880    0.00039880
     atom    9 type  1   force =    -0.00039880    0.00039880    0.00039880
     atom   10 type  1   force =     0.00039880   -0.00039880    0.00039880
     atom   11 type  1   force =    -0.00039880   -0.00039880    0.00039880
     atom   12 type  1   force =     0.00039880    0.00039880   -0.00039880
     atom   13 type  1   force =    -0.00039880    0.00039880   -0.00039880
     atom   14 type  1   force =     0.00039880   -0.00039880   -0.00039880
     atom   15 type  1   force =    -0.00039880   -0.00039880   -0.00039880

     Total force =     0.001954     Total SCF correction =     0.000016
     Energy error            =      1.1E-03 Ry
     Gradient error          =      4.0E-04 Ry/Bohr

     number of scf cycles    =   6
     number of bfgs steps    =   5

     energy             old  =   -3716.2955499685 Ry
     energy             new  =   -3716.2966595089 Ry

     CASE: energy            _new < energy            _old

     new trust radius        =       0.0054334217 bohr
     new conv_thr            =       0.0000000100 Ry


ATOMIC_POSITIONS (crystal)
Fe               0.5000000000        0.0000000000        0.0000000000
Fe               0.0000000000        0.5000000000        0.0000000000
Fe               0.5000000000        0.5000000000        0.0000000000
Fe               0.0000000000        0.0000000000        0.5000000000
Fe               0.5000000000        0.0000000000        0.5000000000
Fe               0.0000000000        0.5000000000        0.5000000000
Fe               0.5000000000        0.5000000000        0.5000000000
Fe               0.2404861428        0.2404861428        0.2404861428
Fe               0.7595138572        0.2404861428        0.2404861428
Fe               0.2404861428        0.7595138572        0.2404861428
Fe               0.7595138572        0.7595138572        0.2404861428
Fe               0.2404861428        0.2404861428        0.7595138572
Fe               0.7595138572        0.2404861428        0.7595138572
Fe               0.2404861428        0.7595138572        0.7595138572
Fe               0.7595138572        0.7595138572        0.7595138572



     Writing config-only to output data dir ./outdir/fe15_vacancy.save/ :
     XML data file
     NEW-OLD atomic charge density approx. for the potential

     Check: negative core charge=   -0.000004

     negative rho (up, down):  0.000E+00 3.270E-03
     Generating pointlists ...

     total cpu time spent up to now is     2130.2 secs

     per-process dynamical memory:   152.1 Mb

     Self-consistent Calculation

     iteration #  1     ecut=    45.00 Ry     beta= 0.10
     Davidson diagonalization with overlap
     ethr =  1.00E-06,  avg # of iterations =  5.0

     negative rho (up, down):  0.000E+00 3.271E-03

     total cpu time spent up to now is     2160.5 secs

     total energy              =   -3716.29667024 Ry
     estimated scf accuracy    <       0.00030995 Ry

     total magnetization       =    37.08 Bohr mag/cell
     absolute magnetization    =    39.47 Bohr mag/cell

     iteration #  2     ecut=    45.00 Ry     beta= 0.10
     Davidson diagonalization with overlap
     ethr =  1.29E-07,  avg # of iterations =  1.6

     negative rho (up, down):  0.000E+00 3.286E-03

     total cpu time spent up to now is     2175.6 secs

     total energy              =   -3716.29667264 Ry
     estimated scf accuracy    <       0.00014894 Ry

     total magnetization       =    37.08 Bohr mag/cell
     absolute magnetization    =    39.48 Bohr mag/cell

     iteration #  3     ecut=    45.00 Ry     beta= 0.10
     Davidson diagonalization with overlap
     ethr =  6.21E-08,  avg # of iterations =  1.7

     negative rho (up, down):  0.000E+00 3.313E-03

     total cpu time spent up to now is     2190.8 secs

     total energy              =   -3716.29667610 Ry
     estimated scf accuracy    <       0.00003129 Ry

     total magnetization       =    37.09 Bohr mag/cell
     absolute magnetization    =    39.48 Bohr mag/cell

     iteration #  4     ecut=    45.00 Ry     beta= 0.10
     Davidson diagonalization with overlap
     ethr =  1.30E-08,  avg # of iterations =  2.3

     negative rho (up, down):  0.000E+00 3.333E-03

     total cpu time spent up to now is     2207.5 secs

     total energy              =   -3716.29667572 Ry
     estimated scf accuracy    <       0.00001402 Ry

     total magnetization       =    37.09 Bohr mag/cell
     absolute magnetization    =    39.48 Bohr mag/cell

     iteration #  5     ecut=    45.00 Ry     beta= 0.10
     Davidson diagonalization with overlap
     ethr =  5.84E-09,  avg # of iterations =  2.6

     negative rho (up, down):  0.000E+00 3.330E-03

     total cpu time spent up to now is     2224.5 secs

     total energy              =   -3716.29667801 Ry
     estimated scf accuracy    <       0.00000096 Ry

     total magnetization       =    37.09 Bohr mag/cell
     absolute magnetization    =    39.48 Bohr mag/cell

     iteration #  6     ecut=    45.00 Ry     beta= 0.10
     Davidson diagonalization with overlap
     ethr =  4.01E-10,  avg # of iterations =  4.8

     negative rho (up, down):  0.000E+00 3.330E-03

     total cpu time spent up to now is     2243.9 secs

     total energy              =   -3716.29667861 Ry
     estimated scf accuracy    <       0.00000029 Ry

     total magnetization       =    37.09 Bohr mag/cell
     absolute magnetization    =    39.48 Bohr mag/cell

     iteration #  7     ecut=    45.00 Ry     beta= 0.10
     Davidson diagonalization with overlap
     ethr =  1.22E-10,  avg # of iterations =  1.9

     negative rho (up, down):  0.000E+00 3.328E-03

     total cpu time spent up to now is     2259.7 secs

     total energy              =   -3716.29667923 Ry
     estimated scf accuracy    <       0.00000018 Ry

     total magnetization       =    37.09 Bohr mag/cell
     absolute magnetization    =    39.48 Bohr mag/cell

     iteration #  8     ecut=    45.00 Ry     beta= 0.10
     Davidson diagonalization with overlap
     ethr =  7.53E-11,  avg # of iterations =  2.5

     negative rho (up, down):  0.000E+00 3.327E-03

     total cpu time spent up to now is     2276.8 secs

     total energy              =   -3716.29667966 Ry
     estimated scf accuracy    <       0.00000015 Ry

     total magnetization       =    37.09 Bohr mag/cell
     absolute magnetization    =    39.48 Bohr mag/cell

     iteration #  9     ecut=    45.00 Ry     beta= 0.10
     Davidson diagonalization with overlap
     ethr =  6.21E-11,  avg # of iterations =  2.4

     negative rho (up, down):  0.000E+00 3.326E-03

     total cpu time spent up to now is     2293.4 secs

     total energy              =   -3716.29667992 Ry
     estimated scf accuracy    <       0.00000005 Ry

     total magnetization       =    37.09 Bohr mag/cell
     absolute magnetization    =    39.48 Bohr mag/cell

     iteration # 10     ecut=    45.00 Ry     beta= 0.10
     Davidson diagonalization with overlap
     ethr =  1.96E-11,  avg # of iterations =  2.8

     negative rho (up, down):  0.000E+00 3.325E-03

     total cpu time spent up to now is     2310.6 secs

     total energy              =   -3716.29668019 Ry
     estimated scf accuracy    <       0.00000004 Ry

     total magnetization       =    37.09 Bohr mag/cell
     absolute magnetization    =    39.48 Bohr mag/cell

     iteration # 11     ecut=    45.00 Ry     beta= 0.10
     Davidson diagonalization with overlap
     ethr =  1.76E-11,  avg # of iterations =  1.1

     negative rho (up, down):  0.000E+00 3.325E-03

     total cpu time spent up to now is     2324.9 secs

     total energy              =   -3716.29668035 Ry
     estimated scf accuracy    <       0.00000004 Ry

     total magnetization       =    37.09 Bohr mag/cell
     absolute magnetization    =    39.48 Bohr mag/cell

     iteration # 12     ecut=    45.00 Ry     beta= 0.10
     Davidson diagonalization with overlap
     ethr =  1.71E-11,  avg # of iterations =  1.5

     negative rho (up, down):  0.000E+00 3.324E-03

     total cpu time spent up to now is     2339.9 secs

     total energy              =   -3716.29668050 Ry
     estimated scf accuracy    <       0.00000001 Ry

     total magnetization       =    37.09 Bohr mag/cell
     absolute magnetization    =    39.48 Bohr mag/cell

     iteration # 13     ecut=    45.00 Ry     beta= 0.10
     Davidson diagonalization with overlap
     ethr =  5.89E-12,  avg # of iterations =  2.6

     negative rho (up, down):  0.000E+00 3.322E-03

     Magnetic moment per site  (integrated on atomic sphere of radius R)
     atom   1 (R=0.176)  charge= 14.4012  magn=  2.1798
     atom   2 (R=0.176)  charge= 14.4012  magn=  2.1798
     atom   3 (R=0.176)  charge= 14.3099  magn=  2.6067
     atom   4 (R=0.176)  charge= 14.4012  magn=  2.1798
     atom   5 (R=0.176)  charge= 14.3099  magn=  2.6067
     atom   6 (R=0.176)  charge= 14.3099  magn=  2.6067
     atom   7 (R=0.176)  charge= 14.2486  magn=  2.8179
     atom   8 (R=0.176)  charge= 14.3033  magn=  2.6064
     atom   9 (R=0.176)  charge= 14.3033  magn=  2.6064
     atom  10 (R=0.176)  charge= 14.3033  magn=  2.6064
     atom  11 (R=0.176)  charge= 14.3033  magn=  2.6064
     atom  12 (R=0.176)  charge= 14.3033  magn=  2.6064
     atom  13 (R=0.176)  charge= 14.3033  magn=  2.6064
     atom  14 (R=0.176)  charge= 14.3033  magn=  2.6064
     atom  15 (R=0.176)  charge= 14.3033  magn=  2.6064

     total cpu time spent up to now is     2356.8 secs

     End of self-consistent calculation

 ------ SPIN UP ------------


          k = 0.0000 0.0000 0.0000 (  6451 PWs)   bands (ev):

   -72.3466 -72.1735 -72.1498 -72.1498 -72.1279 -72.1279 -72.1279 -72.1228
   -72.1228 -72.1228 -72.1180 -72.1117 -71.6357 -71.6357 -71.6323 -38.3820
   -38.3820 -38.3820 -38.2531 -38.2531 -38.2531 -38.2459 -38.2245 -38.2245
   -38.2245 -38.2064 -38.2064 -38.2064 -38.1994 -38.1994 -38.1994 -38.1810
   -38.1180 -38.1180 -38.1180 -38.1121 -38.1121 -38.0747 -38.0747 -38.0747
   -38.0456 -38.0456 -38.0456 -38.0353 -38.0353 -38.0319 -38.0319 -38.0319
   -38.0215 -38.0215 -38.0215 -37.6351 -37.6351 -37.6351 -37.6067 -37.6067
   -37.6067 -37.5953 -37.5953 -37.5953   8.1847  11.4714  11.4956  11.4956
    11.6055  11.6055  11.6289  11.6289  11.6289  11.7992  11.7992  11.7992
    12.1983  12.1983  12.4911  12.8073  12.8073  12.8073  12.9391  12.9391
    12.9391  13.0308  13.0308  13.0308  13.2655  13.2655  13.2655  13.3620
    13.6671  13.6671  13.6671  13.6810  13.6810  13.8939  13.8939  13.8939
    14.1678  14.1678  14.1678  14.2479  14.2479  14.2479  14.3041  14.3041
    14.3041  14.6785  14.6785  14.6785  14.8206  14.9736  14.9736  15.0725
    15.0725  15.1105  15.1105  15.1105  15.1182  15.2421  15.2421  15.2458
    15.2458  15.2622  15.2622  15.2622  15.3808  15.3808  15.4147  15.6655
    15.6655  15.6655  16.1861  16.1861  16.2512  16.2512  16.2512  16.2704
    16.2704  16.2704  16.4686  16.4686  16.4686  16.6962  16.7443  16.7443

          k = 0.0000 0.0000 0.2500 (  6495 PWs)   bands (ev):

   -72.3466 -72.1712 -72.1546 -72.1500 -72.1275 -72.1275 -72.1252 -72.1235
   -72.1235 -72.1225 -72.1185 -72.1122 -71.6359 -71.6354 -71.6327 -38.3823
   -38.3823 -38.3814 -38.2561 -38.2533 -38.2513 -38.2513 -38.2305 -38.2305
   -38.2228 -38.2122 -38.2122 -38.2036 -38.1900 -38.1900 -38.1856 -38.1843
   -38.1489 -38.1395 -38.1395 -38.1272 -38.0875 -38.0875 -38.0809 -38.0686
   -38.0464 -38.0453 -38.0423 -38.0423 -38.0413 -38.0345 -38.0262 -38.0262
   -38.0150 -38.0144 -38.0144 -37.6342 -37.6328 -37.6328 -37.6123 -37.6109
   -37.6109 -37.6036 -37.6036 -37.6000   8.4873  10.6415  11.5854  11.5893
    11.6554  11.6760  11.6760  11.7216  11.8054  11.8890  11.8890  11.9428
    12.2443  12.2715  12.5186  12.7347  12.7566  12.7566  12.8052  12.8504
    12.9953  12.9953  13.0531  13.1981  13.1981  13.2527  13.2527  13.3607
    13.5121  13.6837  13.7437  13.7437  13.8321  13.8321  13.8821  13.9136
    13.9490  13.9490  14.0036  14.1930  14.1930  14.4020  14.4096  14.4453
    14.5369  14.5369  14.6878  14.6878  14.7017  14.7644  14.8029  14.8029
    14.8789  14.9880  15.0728  15.0729  15.1205  15.1990  15.2100  15.2100
    15.2384  15.2646  15.2718  15.3182  15.3512  15.3768  15.3768  15.3935
    15.4051  15.6249  15.6763  15.6921  15.6921  16.1820  16.1820  16.1830
    16.2549  16.3280  16.4171  16.4171  16.5746  16.7716  16.9533  16.9533

          k = 0.0000 0.0000-0.5000 (  6480 PWs)   bands (ev):

   -72.3466 -72.1663 -72.1613 -72.1500 -72.1267 -72.1267 -72.1242 -72.1242
   -72.1226 -72.1217 -72.1192 -72.1130 -71.6359 -71.6346 -71.6334 -38.3784
   -38.3784 -38.3755 -38.2639 -38.2458 -38.2458 -38.2398 -38.2207 -38.2169
   -38.2169 -38.2089 -38.2089 -38.2049 -38.2049 -38.1963 -38.1913 -38.1712
   -38.1700 -38.1546 -38.1546 -38.1458 -38.0988 -38.0988 -38.0703 -38.0630
   -38.0511 -38.0467 -38.0432 -38.0371 -38.0363 -38.0363 -38.0225 -38.0225
   -38.0073 -38.0038 -38.0038 -37.6301 -37.6268 -37.6268 -37.6172 -37.6140
   -37.6140 -37.6067 -37.6067 -37.5981   9.2605   9.4927  11.7193  11.7444
    11.7717  11.7717  11.8528  11.9294  11.9294  11.9607  12.0235  12.1594
    12.1800  12.2733  12.4046  12.4417  12.4709  12.6733  12.7087  12.7087
    13.1114  13.1114  13.3632  13.3632  13.3823  13.3995  13.4194  13.5249
    13.5249  13.6441  13.6441  13.6779  13.6944  13.6944  13.8046  13.8583
    13.8585  13.8585  13.8787  14.1045  14.1045  14.2564  14.3007  14.3007
    14.3597  14.3789  14.5936  14.5957  14.5957  14.6005  14.7292  14.7292
    14.8065  14.8762  14.9130  15.1817  15.1817  15.1820  15.1820  15.1822
    15.2183  15.2423  15.2494  15.2554  15.3133  15.3144  15.3464  15.4058
    15.4915  15.7682  15.7978  15.7978  15.8376  15.8376  15.8789  15.9960
    16.1195  16.3825  16.6250  16.6250  16.6796  16.7220  16.8032  16.8032

          k = 0.0000 0.2500 0.2500 (  6500 PWs)   bands (ev):

   -72.3466 -72.1689 -72.1556 -72.1525 -72.1287 -72.1269 -72.1230 -72.1230
   -72.1229 -72.1226 -72.1190 -72.1130 -71.6356 -71.6353 -71.6331 -38.3800
   -38.3796 -38.3783 -38.2605 -38.2534 -38.2489 -38.2417 -38.2326 -38.2293
   -38.2206 -38.2089 -38.2059 -38.2039 -38.2026 -38.1960 -38.1821 -38.1775
   -38.1719 -38.1463 -38.1460 -38.1116 -38.0894 -38.0865 -38.0787 -38.0783
   -38.0565 -38.0502 -38.0498 -38.0487 -38.0298 -38.0284 -38.0272 -38.0158
   -38.0157 -38.0151 -38.0108 -37.6335 -37.6287 -37.6278 -37.6176 -37.6102
   -37.6075 -37.6062 -37.6057 -37.6023   8.7883  10.7429  10.9249  11.5064
    11.7722  11.7780  11.8186  11.8467  11.9018  12.0290  12.0321  12.0800
    12.3343  12.3396  12.5776  12.6464  12.6690  12.7995  12.8707  12.8971
    12.9492  13.0271  13.0749  13.0930  13.1246  13.1276  13.3036  13.3853
    13.5397  13.5831  13.6728  13.6852  13.7411  13.7836  13.8107  13.8985
    13.9084  14.0022  14.0303  14.1511  14.2098  14.3428  14.3593  14.4251
    14.4319  14.4785  14.5154  14.5231  14.6168  14.6517  14.7256  14.7830
    14.7982  14.8890  14.9052  14.9703  15.0328  15.0623  15.1585  15.1873
    15.2026  15.2549  15.2674  15.2684  15.3407  15.3438  15.3606  15.4198
    15.5345  15.5418  15.5706  15.5925  15.6900  15.6981  15.7105  15.8354
    15.8862  15.9612  16.3222  16.6657  16.6997  17.7150  17.7796  17.9813

          k = 0.0000 0.2500-0.5000 (  6452 PWs)   bands (ev):

   -72.3465 -72.1643 -72.1606 -72.1530 -72.1295 -72.1261 -72.1237 -72.1221
   -72.1219 -72.1204 -72.1197 -72.1141 -71.6355 -71.6346 -71.6337 -38.3757
   -38.3745 -38.3732 -38.2640 -38.2598 -38.2368 -38.2353 -38.2183 -38.2180
   -38.2128 -38.2122 -38.2079 -38.2066 -38.1951 -38.1946 -38.1899 -38.1830
   -38.1737 -38.1500 -38.1460 -38.1181 -38.0918 -38.0912 -38.0696 -38.0632
   -38.0575 -38.0524 -38.0505 -38.0459 -38.0340 -38.0275 -38.0183 -38.0143
   -38.0140 -38.0136 -38.0019 -37.6252 -37.6244 -37.6210 -37.6152 -37.6116
   -37.6115 -37.6072 -37.6055 -37.5997   9.5337   9.7478  11.1760  11.3245
    11.9342  11.9738  12.0522  12.1050  12.1178  12.1338  12.1608  12.2575
    12.2892  12.3662  12.4548  12.4830  12.5345  12.7073  12.8114  12.8368
    13.0976  13.1240  13.1908  13.1997  13.2330  13.2589  13.2889  13.3902
    13.4836  13.5081  13.6285  13.6529  13.6971  13.7231  13.7258  13.7955
    13.8072  13.8873  13.9330  13.9622  13.9963  14.0735  14.1073  14.1715
    14.2777  14.4768  14.5507  14.5524  14.5658  14.6269  14.7634  14.7774
    14.8109  14.8483  14.8666  14.8912  14.9108  14.9949  15.0070  15.1324
    15.2153  15.2288  15.2589  15.2612  15.2838  15.3176  15.3552  15.3630
    15.4196  15.5216  15.5235  15.5801  15.5990  15.6400  15.6843  15.7735
    15.9006  16.1831  16.2153  17.1788  17.1980  17.2929  17.3689  18.9386

          k = 0.0000-0.5000-0.5000 (  6496 PWs)   bands (ev):

   -72.3465 -72.1599 -72.1599 -72.1587 -72.1316 -72.1255 -72.1230 -72.1230
   -72.1205 -72.1191 -72.1191 -72.1159 -71.6347 -71.6347 -71.6347 -38.3762
   -38.3707 -38.3707 -38.2716 -38.2666 -38.2277 -38.2237 -38.2237 -38.2234
   -38.2234 -38.2209 -38.2141 -38.2039 -38.1972 -38.1972 -38.1896 -38.1896
   -38.1749 -38.1505 -38.1403 -38.0823 -38.0809 -38.0802 -38.0802 -38.0694
   -38.0686 -38.0686 -38.0599 -38.0531 -38.0374 -38.0374 -38.0344 -38.0290
   -38.0111 -38.0111 -38.0043 -37.6266 -37.6202 -37.6182 -37.6134 -37.6134
   -37.6128 -37.6128 -37.6075 -37.6052  10.2520  10.2520  10.2948  10.7198
    12.1581  12.1581  12.1957  12.2538  12.3181  12.3181  12.3906  12.3998
    12.4686  12.4686  12.5810  12.6925  12.7268  12.7268  12.7375  12.7616
    12.9470  12.9645  12.9645  12.9830  13.0657  13.1028  13.1028  13.3745
    13.4926  13.4926  13.5465  13.5625  13.5716  13.6500  13.6613  13.6916
    13.6916  13.8024  13.8024  13.8725  13.8725  13.8906  13.9216  14.1888
    14.2421  14.4485  14.4744  14.4744  14.5184  14.6743  14.7537  14.7537
    14.7807  14.8279  14.8455  14.8455  14.8492  15.0017  15.0017  15.0197
    15.0197  15.0699  15.1087  15.2004  15.2298  15.2298  15.2737  15.2746
    15.3584  15.3584  15.3807  15.5092  15.5140  15.6001  15.6001  15.8422
    15.8422  16.2834  16.3234  18.0436  18.0700  18.0700  18.1311  18.3011

          k = 0.2500 0.2500 0.2500 (  6493 PWs)   bands (ev):

   -72.3465 -72.1669 -72.1552 -72.1552 -72.1295 -72.1259 -72.1259 -72.1237
   -72.1203 -72.1203 -72.1197 -72.1136 -71.6352 -71.6352 -71.6335 -38.3768
   -38.3755 -38.3755 -38.2623 -38.2488 -38.2407 -38.2407 -38.2387 -38.2176
   -38.2176 -38.2119 -38.2119 -38.2045 -38.1978 -38.1978 -38.1868 -38.1732
   -38.1691 -38.1691 -38.1286 -38.1026 -38.1026 -38.0927 -38.0927 -38.0701
   -38.0653 -38.0563 -38.0563 -38.0343 -38.0343 -38.0302 -38.0145 -38.0145
   -38.0143 -38.0143 -38.0122 -37.6339 -37.6234 -37.6234 -37.6209 -37.6093
   -37.6093 -37.6066 -37.6066 -37.6029   9.0818  10.9612  10.9612  11.2108
    11.6965  11.6965  11.8126  12.0016  12.0016  12.1173  12.2223  12.2223
    12.4972  12.4972  12.6138  12.6321  12.6798  12.8089  12.8089  12.9230
    12.9230  13.0229  13.0246  13.1605  13.1605  13.2015  13.2015  13.4589
    13.4629  13.4804  13.4804  13.5634  13.5634  13.7208  13.7208  13.8397
    13.8397  13.8570  13.8661  14.0405  14.0405  14.0718  14.2449  14.2449
    14.3064  14.3064  14.4744  14.6048  14.6048  14.6618  14.6890  14.8221
    14.8221  14.8477  14.9272  14.9938  15.0192  15.0192  15.1112  15.1112
    15.1508  15.2633  15.2633  15.2927  15.2927  15.3131  15.3330  15.3330
    15.4392  15.4850  15.4850  15.6018  15.6018  15.7477  15.8306  15.8306
    15.9762  15.9762  15.9856  16.7151  16.7151  16.8006  18.6583  18.6583

          k = 0.2500 0.2500-0.5000 (  6456 PWs)   bands (ev):

   -72.3465 -72.1628 -72.1599 -72.1548 -72.1296 -72.1272 -72.1252 -72.1240
   -72.1203 -72.1192 -72.1180 -72.1144 -71.6352 -71.6346 -71.6340 -38.3729
   -38.3727 -38.3703 -38.2625 -38.2543 -38.2444 -38.2294 -38.2254 -38.2204
   -38.2141 -38.2096 -38.2095 -38.2061 -38.1922 -38.1883 -38.1850 -38.1757
   -38.1737 -38.1674 -38.1225 -38.1117 -38.1058 -38.0907 -38.0803 -38.0733
   -38.0688 -38.0658 -38.0526 -38.0505 -38.0267 -38.0168 -38.0157 -38.0134
   -38.0130 -38.0121 -38.0037 -37.6294 -37.6243 -37.6176 -37.6150 -37.6134
   -37.6081 -37.6074 -37.6067 -37.6026   9.8089  10.0077  11.3902  11.4431
    11.4509  11.6726  12.2222  12.2446  12.2822  12.2900  12.3029  12.3433
    12.4071  12.4658  12.4943  12.5891  12.6245  12.7529  12.8177  12.9400
    13.0610  13.1088  13.1239  13.1312  13.1754  13.2449  13.2633  13.2766
    13.3557  13.4045  13.4771  13.5437  13.5921  13.5964  13.6307  13.6399
    13.6614  13.6879  13.6912  13.7613  13.7769  13.8548  13.8642  14.0384
    14.2250  14.3222  14.4223  14.4912  14.6452  14.7068  14.7724  14.7832
    14.8457  14.8805  14.9050  14.9152  14.9201  15.0962  15.1318  15.1494
    15.1628  15.1862  15.2634  15.2961  15.3025  15.3086  15.3397  15.3577
    15.4164  15.4924  15.5180  15.5592  15.6036  15.8578  15.9102  15.9196
    15.9481  15.9967  16.0365  16.1784  16.2359  17.8649  18.0083  19.4252

          k = 0.2500-0.5000-0.5000 (  6472 PWs)   bands (ev):

   -72.3464 -72.1593 -72.1593 -72.1587 -72.1308 -72.1263 -72.1258 -72.1258
   -72.1208 -72.1167 -72.1167 -72.1155 -71.6346 -71.6346 -71.6346 -38.3709
   -38.3679 -38.3679 -38.2602 -38.2582 -38.2325 -38.2325 -38.2229 -38.2195
   -38.2173 -38.2173 -38.2079 -38.2048 -38.1903 -38.1903 -38.1793 -38.1793
   -38.1735 -38.1661 -38.1201 -38.1027 -38.1000 -38.0863 -38.0863 -38.0818
   -38.0815 -38.0815 -38.0766 -38.0329 -38.0281 -38.0281 -38.0193 -38.0131
   -38.0080 -38.0080 -38.0035 -37.6327 -37.6207 -37.6185 -37.6185 -37.6112
   -37.6092 -37.6080 -37.6080 -37.6063  10.5242  10.5242  10.5549  10.9417
    11.9298  12.0151  12.0151  12.2488  12.3535  12.3535  12.4437  12.6666
    12.6666  12.7184  12.7282  12.7330  12.7810  12.7938  12.7938  12.8333
    12.9194  12.9656  12.9656  12.9933  13.0344  13.0344  13.1271  13.2064
    13.2922  13.2922  13.3287  13.3944  13.4595  13.4785  13.4785  13.4790
    13.5236  13.5236  13.5875  13.6251  13.6837  13.6837  13.7063  13.8045
    13.8266  14.2895  14.2895  14.3742  14.8061  14.8810  14.8810  14.9041
    14.9052  14.9052  15.0128  15.0128  15.0821  15.0821  15.1047  15.1499
    15.2053  15.2112  15.2757  15.2757  15.3369  15.3402  15.3500  15.3500
    15.3711  15.3711  15.4599  15.5144  15.5144  15.5447  15.6797  15.7769
    15.7769  16.0316  16.0778  16.8877  16.9001  16.9001  16.9794  20.3628

          k =-0.5000-0.5000-0.5000 (  6488 PWs)   bands (ev):

   -72.3464 -72.1588 -72.1588 -72.1588 -72.1291 -72.1278 -72.1278 -72.1278
   -72.1211 -72.1152 -72.1152 -72.1152 -71.6346 -71.6346 -71.6346 -38.3647
   -38.3647 -38.3647 -38.2572 -38.2366 -38.2366 -38.2366 -38.2362 -38.2087
   -38.2087 -38.2087 -38.1994 -38.1994 -38.1879 -38.1879 -38.1879 -38.1762
   -38.1762 -38.1762 -38.1159 -38.1159 -38.0967 -38.0945 -38.0945 -38.0945
   -38.0935 -38.0935 -38.0935 -38.0167 -38.0167 -38.0167 -38.0132 -38.0132
   -38.0132 -38.0074 -38.0074 -37.6352 -37.6201 -37.6201 -37.6201 -37.6123
   -37.6123 -37.6090 -37.6090 -37.6090  11.2057  11.2057  11.2057  11.2438
    11.2856  11.2856  11.2856  12.1104  12.7803  12.7803  12.7803  12.8087
    12.8087  12.8087  12.8123  12.8123  12.8123  12.8870  12.8870  12.9189
    12.9189  12.9189  12.9887  12.9887  13.0339  13.0339  13.0339  13.1714
    13.1714  13.1714  13.1741  13.2565  13.2565  13.2565  13.2706  13.2706
    13.2706  13.3336  13.3336  13.3336  13.3581  13.3919  13.3919  13.6072
    13.6072  14.2449  14.2449  14.2449  14.9370  14.9370  14.9893  14.9893
    14.9893  15.0799  15.0799  15.0799  15.0970  15.0970  15.0970  15.1825
    15.1825  15.2954  15.2954  15.2954  15.4206  15.4206  15.4206  15.4744
    15.4744  15.4744  15.6773  15.6773  15.6773  15.7902  15.7902  15.8366
    15.8366  15.8366  15.8671  16.2115  16.2115  16.2115  16.3499  22.4968

 ------ SPIN DOWN ----------


          k = 0.0000 0.0000 0.0000 (  6451 PWs)   bands (ev):

   -68.9323 -68.8794 -68.8794 -68.8734 -68.8734 -68.8723 -68.8607 -68.8607
   -68.8607 -68.8549 -68.8549 -68.8549 -68.8493 -68.8231 -68.8045 -35.2150
   -35.2150 -35.2150 -35.1613 -35.1613 -35.1613 -35.0474 -35.0474 -35.0474
   -35.0292 -35.0292 -35.0186 -35.0186 -35.0186 -35.0010 -35.0010 -35.0010
   -34.9827 -34.9827 -34.9827 -34.9547 -34.9547 -34.9547 -34.9534 -34.9506
   -34.9506 -34.9506 -34.9394 -34.9394 -34.9116 -34.9116 -34.9116 -34.8902
   -34.8902 -34.8902 -34.8756 -34.8128 -34.8128 -34.8128 -34.7962 -34.7962
   -34.7962 -34.7918 -34.7918 -34.7918   8.3259  12.3393  12.3393  12.4416
    12.4416  12.4416  12.6271  13.0519  13.0519  13.1358  13.1358  13.1358
    13.7107  13.9388  13.9388  14.7470  14.7470  14.7470  14.8546  14.8546
    14.8546  14.9912  14.9912  14.9912  15.6215  15.6215  15.6215  15.7222
    15.7490  15.7490  15.7490  16.1622  16.1622  16.4067  16.4067  16.4067
    16.4140  16.4140  16.4140  16.5547  16.5547  16.5547  16.5771  16.5771
    16.5771  16.9639  16.9639  16.9639  17.2931  17.2931  17.2931  17.5170
    17.5170  17.6303  17.6303  17.6303  17.8516  17.8775  17.8775  17.8775
    18.0780  18.0780  18.0896  18.2305  18.2305  18.3971  18.3971  18.4167
    18.4167  18.4167  18.4189  18.4189  18.4235  18.6438  18.6438  18.6438
    18.8395  18.8395  18.9734  18.9734  18.9734  18.9944  18.9944  18.9944

          k = 0.0000 0.0000 0.2500 (  6495 PWs)   bands (ev):

   -68.9274 -68.8937 -68.8788 -68.8744 -68.8741 -68.8727 -68.8601 -68.8601
   -68.8556 -68.8556 -68.8543 -68.8499 -68.8470 -68.8245 -68.8061 -35.2063
   -35.2063 -35.2062 -35.1535 -35.1499 -35.1499 -35.0820 -35.0820 -35.0778
   -35.0757 -35.0495 -35.0495 -35.0411 -35.0257 -35.0257 -35.0076 -34.9882
   -34.9761 -34.9761 -34.9512 -34.9509 -34.9503 -34.9453 -34.9352 -34.9287
   -34.9287 -34.9222 -34.9222 -34.9107 -34.9011 -34.8997 -34.8997 -34.8927
   -34.8804 -34.8769 -34.8769 -34.8289 -34.8195 -34.8195 -34.8147 -34.8147
   -34.8145 -34.8133 -34.8107 -34.8107   8.6328  10.9108  12.5056  12.6083
    12.6083  12.6827  13.0638  13.1037  13.1037  13.1227  13.3422  13.4696
    13.8351  14.0387  14.0728  14.5304  14.5976  14.7461  14.7461  15.0241
    15.0241  15.0620  15.0683  15.0683  15.1150  15.4733  15.4733  15.5544
    15.6363  15.7481  15.7481  16.0051  16.0498  16.0498  16.1483  16.1698
    16.2146  16.2146  16.3225  16.3570  16.3570  16.5144  16.5832  16.5832
    16.6791  16.9244  16.9244  16.9475  17.0313  17.1750  17.1750  17.3669
    17.5478  17.5478  17.6245  17.9055  17.9252  17.9681  17.9681  17.9746
    17.9750  18.0746  18.1248  18.1537  18.2863  18.3878  18.3971  18.4075
    18.4075  18.4078  18.4236  18.5396  18.6261  18.6687  18.7602  18.8051
    18.8051  18.8646  18.8743  18.8743  18.9021  18.9954  19.0318  19.0495

          k = 0.0000 0.0000-0.5000 (  6480 PWs)   bands (ev):

   -68.9148 -68.9118 -68.8779 -68.8750 -68.8744 -68.8729 -68.8592 -68.8592
   -68.8565 -68.8565 -68.8535 -68.8508 -68.8355 -68.8285 -68.8079 -35.1627
   -35.1597 -35.1597 -35.1512 -35.1512 -35.1383 -35.1370 -35.1186 -35.1186
   -35.0967 -35.0907 -35.0907 -35.0497 -35.0156 -35.0155 -35.0155 -34.9960
   -34.9960 -34.9765 -34.9592 -34.9514 -34.9486 -34.9474 -34.9248 -34.9248
   -34.8893 -34.8873 -34.8855 -34.8780 -34.8767 -34.8767 -34.8729 -34.8729
   -34.8714 -34.8702 -34.8550 -34.8550 -34.8407 -34.8407 -34.8337 -34.8326
   -34.8326 -34.8242 -34.8224 -34.8224   9.4202   9.6654  12.7431  12.8328
    12.9182  12.9182  12.9596  12.9596  13.0376  13.2694  13.7655  13.7969
    13.9920  14.0579  14.0933  14.2483  14.2855  14.6535  14.7565  14.7565
    15.0797  15.0797  15.3513  15.3664  15.4365  15.4365  15.4607  15.4607
    15.4935  15.4935  15.6686  15.6832  15.6832  15.6962  15.7233  15.9632
    15.9632  15.9971  16.0454  16.0454  16.1448  16.1663  16.4081  16.4081
    16.8229  17.1140  17.1140  17.2192  17.3845  17.3845  17.3846  17.5273
    17.5774  17.6462  17.6961  17.7112  17.7112  17.8315  17.8315  18.0461
    18.1976  18.2509  18.3144  18.3217  18.3315  18.3750  18.3954  18.4059
    18.4083  18.4083  18.4520  18.5139  18.5143  18.5143  18.5487  18.6711
    18.7118  18.7547  18.8138  19.0076  19.0279  19.0279  19.1053  19.1053

          k = 0.0000 0.2500 0.2500 (  6500 PWs)   bands (ev):

   -68.9227 -68.8947 -68.8874 -68.8781 -68.8744 -68.8741 -68.8594 -68.8550
   -68.8550 -68.8540 -68.8511 -68.8506 -68.8445 -68.8262 -68.8072 -35.2006
   -35.1911 -35.1835 -35.1576 -35.1388 -35.1311 -35.1139 -35.1108 -35.1019
   -35.0881 -35.0600 -35.0430 -35.0293 -35.0235 -35.0041 -35.0033 -34.9919
   -34.9868 -34.9823 -34.9782 -34.9626 -34.9555 -34.9549 -34.9370 -34.9337
   -34.9331 -34.9315 -34.9069 -34.9012 -34.8980 -34.8828 -34.8790 -34.8755
   -34.8664 -34.8609 -34.8600 -34.8500 -34.8386 -34.8288 -34.8230 -34.8206
   -34.8181 -34.8139 -34.8081 -34.7976   8.9382  11.0460  11.2586  12.5353
    12.7817  12.7936  13.2302  13.3128  13.3485  13.4454  13.5620  13.6472
    13.9652  14.1165  14.1812  14.4476  14.5268  14.8121  14.8414  14.9222
    14.9570  15.0357  15.0672  15.0861  15.0976  15.1787  15.2939  15.4914
    15.6339  15.6708  15.7213  15.7941  15.8091  15.8410  15.9330  15.9801
    16.0291  16.0531  16.1107  16.1554  16.2523  16.4400  16.4865  16.5488
    16.8021  16.8661  16.8704  17.0975  17.1325  17.2460  17.2806  17.3773
    17.3959  17.4549  17.6143  17.7687  17.9128  17.9573  18.0108  18.0363
    18.0581  18.1335  18.1457  18.2414  18.2460  18.2961  18.2972  18.3357
    18.3865  18.3942  18.4079  18.4513  18.4811  18.5089  18.5727  18.5860
    18.6061  18.7263  19.0079  19.0465  19.1680  19.5847  19.6966  19.8144

          k = 0.0000 0.2500-0.5000 (  6452 PWs)   bands (ev):

   -68.9112 -68.9087 -68.8852 -68.8836 -68.8744 -68.8742 -68.8586 -68.8559
   -68.8541 -68.8521 -68.8514 -68.8502 -68.8354 -68.8308 -68.8083 -35.1697
   -35.1661 -35.1514 -35.1506 -35.1475 -35.1416 -35.1360 -35.1207 -35.1156
   -35.0852 -35.0697 -35.0569 -35.0339 -35.0232 -35.0165 -35.0070 -34.9894
   -34.9891 -34.9796 -34.9619 -34.9579 -34.9575 -34.9440 -34.9439 -34.9323
   -34.9266 -34.9236 -34.9080 -34.8969 -34.8952 -34.8832 -34.8644 -34.8600
   -34.8578 -34.8524 -34.8461 -34.8435 -34.8386 -34.8325 -34.8322 -34.8206
   -34.8160 -34.8147 -34.8099 -34.8081   9.7060   9.9372  11.6766  11.9237
    13.0210  13.1521  13.1701  13.3358  13.7363  13.7828  13.8241  13.8261
    14.0221  14.0720  14.2106  14.3145  14.3236  14.6604  14.8496  14.8558
    15.0639  15.0731  15.0992  15.1253  15.1921  15.2390  15.2585  15.3667
    15.3733  15.4696  15.6074  15.6202  15.6829  15.6839  15.6932  15.7837
    15.7972  15.8238  15.9591  16.0687  16.1348  16.1880  16.2524  16.6002
    16.7476  17.0644  17.2255  17.2559  17.2941  17.3290  17.3777  17.4209
    17.5354  17.5452  17.5863  17.6163  17.6263  17.6719  17.8036  18.0377
    18.0576  18.0769  18.1558  18.2398  18.2946  18.2988  18.3023  18.3801
    18.3852  18.4160  18.4428  18.4463  18.4581  18.4602  18.5066  18.6635
    18.6987  18.8389  18.8711  19.3187  19.4323  19.4721  19.5273  20.3221

          k = 0.0000-0.5000-0.5000 (  6496 PWs)   bands (ev):

   -68.9038 -68.9038 -68.8964 -68.8911 -68.8745 -68.8745 -68.8577 -68.8550
   -68.8550 -68.8523 -68.8492 -68.8419 -68.8352 -68.8352 -68.8088 -35.1772
   -35.1551 -35.1551 -35.1471 -35.1471 -35.1469 -35.1464 -35.1315 -35.1134
   -35.0819 -35.0219 -35.0219 -35.0131 -35.0131 -35.0023 -35.0023 -34.9954
   -34.9944 -34.9930 -34.9796 -34.9710 -34.9678 -34.9678 -34.9676 -34.9670
   -34.9484 -34.9396 -34.9396 -34.9130 -34.9084 -34.8729 -34.8603 -34.8603
   -34.8590 -34.8590 -34.8397 -34.8397 -34.8366 -34.8325 -34.8287 -34.8223
   -34.8081 -34.8081 -34.7988 -34.7986  10.5090  10.5090  10.5218  11.0265
    13.5347  13.5391  13.5488  13.5488  13.6417  13.7209  13.7209  14.0473
    14.0473  14.2249  14.2624  14.5846  14.6028  14.6130  14.6130  14.7042
    14.8489  14.9343  14.9663  14.9663  15.0958  15.1185  15.1185  15.3652
    15.3852  15.3852  15.4588  15.4588  15.4807  15.4902  15.5839  15.6240
    15.7302  15.7760  15.9487  16.0779  16.0779  16.3698  16.3698  16.5599
    16.7129  16.9894  16.9894  17.0078  17.1770  17.2314  17.2314  17.4892
    17.5367  17.5569  17.7059  17.7059  17.7471  17.7815  17.7815  17.7850
    17.9240  17.9240  18.0403  18.0985  18.1583  18.2344  18.2862  18.2862
    18.3064  18.3064  18.3746  18.4243  18.4344  18.4344  18.4857  18.7500
    18.7500  18.9599  19.0030  19.9919  20.0641  20.1377  20.1377  20.3060

          k = 0.2500 0.2500 0.2500 (  6493 PWs)   bands (ev):

   -68.9184 -68.8924 -68.8924 -68.8799 -68.8784 -68.8784 -68.8578 -68.8548
   -68.8525 -68.8525 -68.8507 -68.8452 -68.8452 -68.8279 -68.8079 -35.1873
   -35.1711 -35.1711 -35.1471 -35.1471 -35.1280 -35.1190 -35.1190 -35.1088
   -35.0623 -35.0623 -35.0388 -35.0388 -35.0299 -35.0299 -35.0284 -35.0186
   -35.0067 -34.9791 -34.9695 -34.9695 -34.9459 -34.9459 -34.9219 -34.9219
   -34.9196 -34.9196 -34.9169 -34.9014 -34.8960 -34.8952 -34.8952 -34.8791
   -34.8562 -34.8547 -34.8448 -34.8448 -34.8311 -34.8311 -34.8202 -34.8202
   -34.8173 -34.8172 -34.8098 -34.8098   9.2374  11.2970  11.2970  11.6048
    12.7209  12.7209  12.9496  13.6927  13.6927  13.7504  13.8103  13.8103
    14.1261  14.2389  14.2389  14.2718  14.5401  14.7914  14.8219  14.8219
    14.9903  14.9903  15.0748  15.0977  15.0977  15.1915  15.1915  15.4502
    15.5672  15.5672  15.6133  15.6133  15.6547  15.7589  15.7798  15.7813
    15.7813  15.8516  15.8516  16.0771  16.0771  16.3009  16.3009  16.4233
    16.7517  16.9106  16.9106  17.2733  17.2935  17.3409  17.4222  17.4222
    17.4998  17.4998  17.5582  17.8319  17.8319  17.9217  17.9710  17.9710
    17.9750  18.1767  18.1767  18.2631  18.2846  18.2846  18.3300  18.3300
    18.3691  18.3839  18.3839  18.4647  18.4647  18.5807  18.5807  18.5877
    18.6169  18.6169  18.6623  19.0484  19.0484  19.1060  20.3756  20.3756

          k = 0.2500 0.2500-0.5000 (  6456 PWs)   bands (ev):

   -68.9078 -68.9058 -68.8875 -68.8847 -68.8797 -68.8795 -68.8586 -68.8550
   -68.8516 -68.8507 -68.8497 -68.8466 -68.8359 -68.8326 -68.8085 -35.1607
   -35.1604 -35.1604 -35.1426 -35.1402 -35.1385 -35.1217 -35.1167 -35.0830
   -35.0821 -35.0768 -35.0609 -35.0399 -35.0333 -35.0308 -35.0278 -35.0064
   -34.9851 -34.9831 -34.9829 -34.9791 -34.9534 -34.9519 -34.9436 -34.9273
   -34.9186 -34.9026 -34.9025 -34.8963 -34.8923 -34.8715 -34.8692 -34.8692
   -34.8666 -34.8608 -34.8467 -34.8385 -34.8347 -34.8280 -34.8231 -34.8198
   -34.8195 -34.8145 -34.8123 -34.8109   9.9913  10.2099  11.8947  11.9659
    12.0166  12.3366  13.3502  13.6208  13.9405  13.9533  13.9798  14.0512
    14.1045  14.2679  14.3742  14.3915  14.4468  14.6972  14.9002  14.9264
    14.9605  14.9717  14.9979  15.1366  15.1425  15.1665  15.2068  15.2107
    15.2462  15.4322  15.5089  15.5704  15.5733  15.5894  15.6271  15.6458
    15.7401  15.7676  15.7857  15.8754  15.9784  16.0128  16.0722  16.5421
    16.5850  16.9693  17.0415  17.0872  17.3826  17.3996  17.4435  17.4902
    17.6570  17.6768  17.6917  17.7429  17.8017  17.8506  17.8866  18.1183
    18.1423  18.1838  18.2015  18.2058  18.2491  18.2831  18.3299  18.3395
    18.3666  18.3953  18.4009  18.4082  18.4914  18.5205  18.5532  18.5991
    18.6034  18.6062  18.6289  18.6741  18.7407  19.9555  20.0667  20.9364

          k = 0.2500-0.5000-0.5000 (  6472 PWs)   bands (ev):

   -68.9009 -68.9009 -68.8957 -68.8903 -68.8810 -68.8810 -68.8599 -68.8560
   -68.8500 -68.8500 -68.8463 -68.8404 -68.8366 -68.8366 -68.8087 -35.1617
   -35.1426 -35.1426 -35.1392 -35.1336 -35.1268 -35.1268 -35.1170 -35.1002
   -35.0703 -35.0550 -35.0550 -35.0521 -35.0326 -35.0326 -35.0321 -35.0184
   -35.0148 -35.0035 -35.0035 -34.9783 -34.9512 -34.9512 -34.9465 -34.9185
   -34.9085 -34.9085 -34.9059 -34.8963 -34.8906 -34.8745 -34.8745 -34.8684
   -34.8547 -34.8547 -34.8395 -34.8385 -34.8362 -34.8362 -34.8311 -34.8228
   -34.8188 -34.8188 -34.8139 -34.8137  10.7883  10.7883  10.7902  11.2523
    12.5519  12.6390  12.6390  13.1569  14.2404  14.2404  14.3185  14.3540
    14.3540  14.4301  14.5581  14.6101  14.6213  14.6873  14.6873  14.7784
    14.8114  14.9234  14.9234  15.0059  15.0933  15.0933  15.1861  15.2036
    15.2617  15.2617  15.3957  15.4326  15.4326  15.4871  15.5209  15.6056
    15.6262  15.6634  15.7493  15.7860  15.7860  16.0223  16.0231  16.0231
    16.1902  16.9732  16.9732  17.0994  17.5970  17.6204  17.6605  17.6605
    17.6873  17.8099  17.8582  17.8582  17.8655  17.9081  17.9081  17.9981
    17.9981  18.0477  18.0524  18.1845  18.2211  18.2317  18.2593  18.2593
    18.2887  18.3370  18.3370  18.3843  18.3843  18.3894  18.4155  18.5753
    18.5753  18.5995  18.7206  19.2232  19.2232  19.2681  19.2701  21.8822

          k =-0.5000-0.5000-0.5000 (  6488 PWs)   bands (ev):

   -68.8949 -68.8949 -68.8949 -68.8895 -68.8895 -68.8895 -68.8619 -68.8584
   -68.8449 -68.8449 -68.8449 -68.8392 -68.8392 -68.8392 -68.8086 -35.1304
   -35.1304 -35.1086 -35.1086 -35.1086 -35.0978 -35.0978 -35.0978 -35.0966
   -35.0966 -35.0966 -35.0742 -35.0742 -35.0742 -35.0674 -35.0674 -35.0591
   -35.0316 -34.9939 -34.9939 -34.9939 -34.9439 -34.9439 -34.9439 -34.8811
   -34.8811 -34.8811 -34.8736 -34.8736 -34.8736 -34.8706 -34.8706 -34.8668
   -34.8668 -34.8668 -34.8454 -34.8446 -34.8401 -34.8401 -34.8397 -34.8397
   -34.8397 -34.8317 -34.8317 -34.8317  11.5164  11.5164  11.5164  11.5456
    11.6183  11.6183  11.6183  12.5945  14.6257  14.6257  14.6257  14.6756
    14.6756  14.6756  14.7709  14.7709  14.7753  14.7753  14.7753  14.8778
    14.8778  14.8778  14.9566  14.9566  14.9566  15.1142  15.1142  15.2402
    15.2402  15.2402  15.3618  15.3618  15.3618  15.3672  15.3788  15.4371
    15.4371  15.4832  15.4832  15.4832  15.6349  15.6349  15.6349  15.6995
    15.6995  17.0036  17.0036  17.0036  17.8833  17.8833  17.8833  17.9001
    17.9001  17.9674  17.9674  18.0449  18.0449  18.0449  18.0666  18.0666
    18.0666  18.2259  18.2259  18.2259  18.2339  18.2339  18.2339  18.3384
    18.3384  18.3384  18.3652  18.3652  18.3652  18.4006  18.4006  18.4006
    18.4090  18.4090  18.4279  18.5723  18.5723  18.5723  18.9049  23.6285

     the Fermi energy is    16.2422 ev

!    total energy              =   -3716.29668110 Ry
     estimated scf accuracy    <          9.1E-09 Ry
     smearing contrib. (-TS)   =       0.01726706 Ry
     internal energy E=F+TS    =   -3716.31394816 Ry

     The total energy is F=E-TS. E is the sum of the following terms:
     one-electron contribution =   -1860.40474496 Ry
     hartree contribution      =    1054.91669175 Ry
     xc contribution           =    -416.15210658 Ry
     ewald contribution        =   -2494.67378837 Ry

     total magnetization       =    37.09 Bohr mag/cell
     absolute magnetization    =    39.48 Bohr mag/cell

     convergence has been achieved in  13 iterations

     negative rho (up, down):  0.000E+00 3.322E-03

     Forces acting on atoms (cartesian axes, Ry/au):

     atom    1 type  1   force =     0.00000000    0.00000000    0.00000000
     atom    2 type  1   force =     0.00000000    0.00000000    0.00000000
     atom    3 type  1   force =     0.00000000    0.00000000    0.00000000
     atom    4 type  1   force =     0.00000000    0.00000000    0.00000000
     atom    5 type  1   force =     0.00000000    0.00000000    0.00000000
     atom    6 type  1   force =     0.00000000    0.00000000    0.00000000
     atom    7 type  1   force =     0.00000000    0.00000000    0.00000000
     atom    8 type  1   force =     0.00009439    0.00009439    0.00009439
     atom    9 type  1   force =    -0.00009439    0.00009439    0.00009439
     atom   10 type  1   force =     0.00009439   -0.00009439    0.00009439
     atom   11 type  1   force =    -0.00009439   -0.00009439    0.00009439
     atom   12 type  1   force =     0.00009439    0.00009439   -0.00009439
     atom   13 type  1   force =    -0.00009439    0.00009439   -0.00009439
     atom   14 type  1   force =     0.00009439   -0.00009439   -0.00009439
     atom   15 type  1   force =    -0.00009439   -0.00009439   -0.00009439

     Total force =     0.000462     Total SCF correction =     0.000861
     SCF correction compared to forces is large: reduce conv_thr to get better values
     Energy error            =      2.2E-05 Ry
     Gradient error          =      9.4E-05 Ry/Bohr

     bfgs converged in   7 scf cycles and   6 bfgs steps
     (criteria: energy <  1.0E-04 Ry, force <  1.0E-03 Ry/Bohr)

     End of BFGS Geometry Optimization

     Final energy             =   -3716.2966810992 Ry

     File ./outdir/fe15_vacancy.bfgs deleted, as requested
Begin final coordinates

ATOMIC_POSITIONS (crystal)
Fe               0.5000000000        0.0000000000        0.0000000000
Fe               0.0000000000        0.5000000000        0.0000000000
Fe               0.5000000000        0.5000000000        0.0000000000
Fe               0.0000000000        0.0000000000        0.5000000000
Fe               0.5000000000        0.0000000000        0.5000000000
Fe               0.0000000000        0.5000000000        0.5000000000
Fe               0.5000000000        0.5000000000        0.5000000000
Fe               0.2404861428        0.2404861428        0.2404861428
Fe               0.7595138572        0.2404861428        0.2404861428
Fe               0.2404861428        0.7595138572        0.2404861428
Fe               0.7595138572        0.7595138572        0.2404861428
Fe               0.2404861428        0.2404861428        0.7595138572
Fe               0.7595138572        0.2404861428        0.7595138572
Fe               0.2404861428        0.7595138572        0.7595138572
Fe               0.7595138572        0.7595138572        0.7595138572
End final coordinates



     Writing all to output data dir ./outdir/fe15_vacancy.save/ :
     XML data file, charge density, pseudopotentials, collected wavefunctions

     init_run     :      6.64s CPU      6.92s WALL (       1 calls)
     electrons    :   2258.14s CPU   2330.72s WALL (       7 calls)
     update_pot   :      1.15s CPU      1.18s WALL (       6 calls)
     forces       :     17.52s CPU     18.02s WALL (       7 calls)

     Called by init_run:
     wfcinit      :      5.27s CPU      5.45s WALL (       1 calls)
     potinit      :      0.42s CPU      0.45s WALL (       1 calls)
     hinit0       :      0.61s CPU      0.62s WALL (       1 calls)

     Called by electrons:
     c_bands      :   1944.58s CPU   1997.27s WALL (     121 calls)
     sum_band     :    253.91s CPU    268.08s WALL (     121 calls)
     v_of_rho     :     22.11s CPU     22.61s WALL (     128 calls)
     newd         :     32.68s CPU     37.79s WALL (     128 calls)
     mix_rho      :      6.35s CPU      6.59s WALL (     121 calls)

     Called by c_bands:
     init_us_2    :     22.29s CPU     22.45s WALL (    5000 calls)
     cegterg      :   1861.48s CPU   1913.69s WALL (    2420 calls)

     Called by *egterg:
     cdiaghg      :    379.39s CPU    380.92s WALL (    9677 calls)
     h_psi        :    902.68s CPU    944.63s WALL (    9817 calls)
     s_psi        :    109.42s CPU    109.85s WALL (    9817 calls)
     g_psi        :      9.46s CPU      9.51s WALL (    7377 calls)

     Called by h_psi:
     h_psi:calbec :    114.37s CPU    117.02s WALL (    9817 calls)
     vloc_psi     :    671.04s CPU    708.39s WALL (    9817 calls)
                                        0.00s GPU  (    9817 calls)
     add_vuspsi   :    110.10s CPU    110.71s WALL (    9817 calls)

     General routines
     calbec       :    167.27s CPU    171.07s WALL (   12797 calls)
     fft          :      7.66s CPU      8.25s WALL (    3297 calls)
     ffts         :      2.16s CPU      2.27s WALL (    3336 calls)
     fftw         :    702.79s CPU    740.79s WALL ( 2057848 calls)
     interpolate  :      1.10s CPU      1.17s WALL (     256 calls)

     Parallel routines

     PWSCF        :  38m 6.00s CPU  39m19.97s WALL


   This run was terminated on:  16:12:59   1Jul2026            

=------------------------------------------------------------------------------=
   JOB DONE.
=------------------------------------------------------------------------------=
