
     Program PWSCF v.7.5 starts on  1Jul2026 at 15:27:58 

     This program is part of the open-source Quantum ESPRESSO suite
     for quantum simulation of materials; please cite
         "P. Giannozzi et al., J. Phys.:Condens. Matter 21 395502 (2009);
         "P. Giannozzi et al., J. Phys.:Condens. Matter 29 465901 (2017);
         "P. Giannozzi et al., J. Chem. Phys. 152 154105 (2020);
          URL http://www.quantum-espresso.org", 
     in publications or presentations arising from this work. More details at
     http://www.quantum-espresso.org/quote

     Parallel version (MPI & OpenMP), running on       4 processor cores
     Number of MPI processes:                 4
     Threads/MPI process:                     1

     MPI processes distributed on     1 nodes
     12856 MiB available memory on the printing compute node when the environment starts

     Reading input from fe16_perfect.relax.in

     Current dimensions of program PWSCF are:
     Max number of different atomic species (ntypx) = 10
     Max number of k-points (npk) =  40000
     Max angular momentum in pseudopotentials (lmaxx) =  4
     file Fe.pbe-spn-rrkjus_psl.1.0.0.UPF: wavefunction(s)  3P 3D renormalized
     Found identity + ( -0.5000  0.0000  0.0000) symmetry
     This is a supercell, fractional translations are disabled

     R & G space division:  proc/nbgrp/npool/nimage =       4
     Subspace diagonalization in iterative solution of the eigenvalue problem:
     one sub-group per band group will be used
     ELPA distributed-memory algorithm (size of sub-group:  2*  2 procs)


     Parallelization info
     --------------------
     sticks:   dense  smooth     PW     G-vecs:    dense   smooth      PW
     Min         841     421    122                36633    12965    2030
     Max         842     422    123                36634    12968    2031
     Sum        3365    1685    489               146533    51867    8121

     Using Slab Decomposition



     bravais-lattice index     =            1
     lattice parameter (alat)  =      10.8320  a.u.
     unit-cell volume          =    1270.9427 (a.u.)^3
     number of atoms/cell      =           16
     number of atomic types    =            1
     number of electrons       =       256.00
     number of Kohn-Sham states=          154
     kinetic-energy cutoff     =      45.0000  Ry
     charge density cutoff     =     360.0000  Ry
     scf convergence threshold =      1.0E-06
     mixing beta               =       0.1000
     number of iterations used =            8  local-TF  mixing
     energy convergence thresh.=      1.0E-04
     force convergence thresh. =      1.0E-03
     Exchange-correlation= PBE
                           (   1   4   3   4   0   0   0)
     nstep                     =           50


     celldm(1)=  10.832000  celldm(2)=   0.000000  celldm(3)=   0.000000
     celldm(4)=   0.000000  celldm(5)=   0.000000  celldm(6)=   0.000000

     crystal axes: (cart. coord. in units of alat)
               a(1) = (   1.000000   0.000000   0.000000 )  
               a(2) = (   0.000000   1.000000   0.000000 )  
               a(3) = (   0.000000   0.000000   1.000000 )  

     reciprocal axes: (cart. coord. in units 2 pi/alat)
               b(1) = (  1.000000  0.000000  0.000000 )  
               b(2) = (  0.000000  1.000000  0.000000 )  
               b(3) = (  0.000000  0.000000  1.000000 )  


     PseudoPot. # 1 for Fe read from file:
     ../../pseudo/Fe.pbe-spn-rrkjus_psl.1.0.0.UPF
     MD5 check sum: 72ea77fed8e64ab3a2ccf2804dfc1862
     Pseudo is Ultrasoft + core correction, Zval = 16.0
     Generated using &quot;atomic&quot; code by A. Dal Corso  v.6.3
     Using radial grid of 1191 points,  6 beta functions with: 
                l(1) =   0
                l(2) =   0
                l(3) =   1
                l(4) =   1
                l(5) =   2
                l(6) =   2
     Q(r) pseudized with 0 coefficients 


     atomic species   valence    mass     pseudopotential
     Fe               16.00    55.84500     Fe( 1.00)

     Starting magnetic structure 
     atomic species   magnetization
     Fe              0.500

     48 Sym. Ops., with inversion, found



   Cartesian axes

     site n.     atom                  positions (alat units)
         1        Fe     tau(   1) = (   0.0000000   0.0000000   0.0000000  )
         2        Fe     tau(   2) = (   0.5000000   0.0000000   0.0000000  )
         3        Fe     tau(   3) = (   0.0000000   0.5000000   0.0000000  )
         4        Fe     tau(   4) = (   0.5000000   0.5000000   0.0000000  )
         5        Fe     tau(   5) = (   0.0000000   0.0000000   0.5000000  )
         6        Fe     tau(   6) = (   0.5000000   0.0000000   0.5000000  )
         7        Fe     tau(   7) = (   0.0000000   0.5000000   0.5000000  )
         8        Fe     tau(   8) = (   0.5000000   0.5000000   0.5000000  )
         9        Fe     tau(   9) = (   0.2500000   0.2500000   0.2500000  )
        10        Fe     tau(  10) = (   0.7500000   0.2500000   0.2500000  )
        11        Fe     tau(  11) = (   0.2500000   0.7500000   0.2500000  )
        12        Fe     tau(  12) = (   0.7500000   0.7500000   0.2500000  )
        13        Fe     tau(  13) = (   0.2500000   0.2500000   0.7500000  )
        14        Fe     tau(  14) = (   0.7500000   0.2500000   0.7500000  )
        15        Fe     tau(  15) = (   0.2500000   0.7500000   0.7500000  )
        16        Fe     tau(  16) = (   0.7500000   0.7500000   0.7500000  )

     number of k points=    10  Marzari-Vanderbilt smearing, width (Ry)=  0.0200
                       cart. coord. in units 2pi/alat
        k(    1) = (   0.0000000   0.0000000   0.0000000), wk =   0.0156250
        k(    2) = (   0.0000000   0.0000000   0.2500000), wk =   0.0937500
        k(    3) = (   0.0000000   0.0000000  -0.5000000), wk =   0.0468750
        k(    4) = (   0.0000000   0.2500000   0.2500000), wk =   0.1875000
        k(    5) = (   0.0000000   0.2500000  -0.5000000), wk =   0.1875000
        k(    6) = (   0.0000000  -0.5000000  -0.5000000), wk =   0.0468750
        k(    7) = (   0.2500000   0.2500000   0.2500000), wk =   0.1250000
        k(    8) = (   0.2500000   0.2500000  -0.5000000), wk =   0.1875000
        k(    9) = (   0.2500000  -0.5000000  -0.5000000), wk =   0.0937500
        k(   10) = (  -0.5000000  -0.5000000  -0.5000000), wk =   0.0156250

     Dense  grid:   146533 G-vectors     FFT dimensions: (  72,  72,  72)

     Smooth grid:    51867 G-vectors     FFT dimensions: (  48,  48,  48)

     Estimated max dynamical RAM per process >     255.10 MB

     Estimated total dynamical RAM >    1020.40 MB

     Check: negative core charge=   -0.000004
     Generating pointlists ...
     new r_m :   0.1786 (alat units)  1.9348 (a.u.) for type    1

     Initial potential from superposition of free atoms

     starting charge     255.9930, renormalised to     256.0000
     Starting wfcs are  160 randomized atomic wfcs

     total cpu time spent up to now is        7.3 secs

     per-process dynamical memory:   127.8 Mb

     Self-consistent Calculation

     iteration #  1     ecut=    45.00 Ry     beta= 0.10
     Davidson diagonalization with overlap
     ethr =  1.00E-02,  avg # of iterations =  3.2

     total cpu time spent up to now is       26.9 secs

     total energy              =   -3958.18467077 Ry
     estimated scf accuracy    <       9.21030371 Ry

     total magnetization       =    51.48 Bohr mag/cell
     absolute magnetization    =    53.76 Bohr mag/cell

     iteration #  2     ecut=    45.00 Ry     beta= 0.10
     Davidson diagonalization with overlap
     ethr =  3.60E-03,  avg # of iterations =  1.5

     negative rho (up, down):  0.000E+00 8.405E-03

     total cpu time spent up to now is       42.3 secs

     total energy              =   -3963.31992804 Ry
     estimated scf accuracy    <       7.63194781 Ry

     total magnetization       =    51.52 Bohr mag/cell
     absolute magnetization    =    53.83 Bohr mag/cell

     iteration #  3     ecut=    45.00 Ry     beta= 0.10
     Davidson diagonalization with overlap
     ethr =  2.98E-03,  avg # of iterations =  1.1

     negative rho (up, down):  0.000E+00 1.168E-02

     total cpu time spent up to now is       57.3 secs

     total energy              =   -3964.04350839 Ry
     estimated scf accuracy    <       0.45547334 Ry

     total magnetization       =    44.94 Bohr mag/cell
     absolute magnetization    =    48.72 Bohr mag/cell

     iteration #  4     ecut=    45.00 Ry     beta= 0.10
     Davidson diagonalization with overlap
     ethr =  1.78E-04,  avg # of iterations =  4.0

     negative rho (up, down):  0.000E+00 1.160E-02

     total cpu time spent up to now is       75.8 secs

     total energy              =   -3964.15779852 Ry
     estimated scf accuracy    <       0.14091734 Ry

     total magnetization       =    41.02 Bohr mag/cell
     absolute magnetization    =    44.89 Bohr mag/cell

     iteration #  5     ecut=    45.00 Ry     beta= 0.10
     Davidson diagonalization with overlap
     ethr =  5.50E-05,  avg # of iterations =  1.4

     negative rho (up, down):  0.000E+00 7.845E-03

     total cpu time spent up to now is       91.0 secs

     total energy              =   -3964.13866334 Ry
     estimated scf accuracy    <       0.16824761 Ry

     total magnetization       =    41.11 Bohr mag/cell
     absolute magnetization    =    44.91 Bohr mag/cell

     iteration #  6     ecut=    45.00 Ry     beta= 0.10
     Davidson diagonalization with overlap
     ethr =  5.50E-05,  avg # of iterations =  3.3

     negative rho (up, down):  0.000E+00 6.344E-03

     total cpu time spent up to now is      110.6 secs

     total energy              =   -3964.18993792 Ry
     estimated scf accuracy    <       0.03869977 Ry

     total magnetization       =    40.95 Bohr mag/cell
     absolute magnetization    =    44.28 Bohr mag/cell

     iteration #  7     ecut=    45.00 Ry     beta= 0.10
     Davidson diagonalization with overlap
     ethr =  1.51E-05,  avg # of iterations =  3.6

     negative rho (up, down):  0.000E+00 6.657E-03

     total cpu time spent up to now is      130.7 secs

     total energy              =   -3964.20168040 Ry
     estimated scf accuracy    <       0.08123832 Ry

     total magnetization       =    39.12 Bohr mag/cell
     absolute magnetization    =    42.36 Bohr mag/cell

     iteration #  8     ecut=    45.00 Ry     beta= 0.10
     Davidson diagonalization with overlap
     ethr =  1.51E-05,  avg # of iterations =  1.0

     negative rho (up, down):  0.000E+00 6.175E-03

     total cpu time spent up to now is      145.4 secs

     total energy              =   -3964.19747949 Ry
     estimated scf accuracy    <       0.07856180 Ry

     total magnetization       =    39.58 Bohr mag/cell
     absolute magnetization    =    42.82 Bohr mag/cell

     iteration #  9     ecut=    45.00 Ry     beta= 0.10
     Davidson diagonalization with overlap
     ethr =  1.51E-05,  avg # of iterations =  1.6

     negative rho (up, down):  0.000E+00 5.822E-03

     total cpu time spent up to now is      161.8 secs

     total energy              =   -3964.19985399 Ry
     estimated scf accuracy    <       0.03132530 Ry

     total magnetization       =    39.17 Bohr mag/cell
     absolute magnetization    =    42.36 Bohr mag/cell

     iteration # 10     ecut=    45.00 Ry     beta= 0.10
     Davidson diagonalization with overlap
     ethr =  1.22E-05,  avg # of iterations =  2.7

     negative rho (up, down):  0.000E+00 5.128E-03

     total cpu time spent up to now is      179.1 secs

     total energy              =   -3964.20414193 Ry
     estimated scf accuracy    <       0.00814315 Ry

     total magnetization       =    38.64 Bohr mag/cell
     absolute magnetization    =    41.75 Bohr mag/cell

     iteration # 11     ecut=    45.00 Ry     beta= 0.10
     Davidson diagonalization with overlap
     ethr =  3.18E-06,  avg # of iterations =  3.5

     negative rho (up, down):  0.000E+00 5.361E-03

     total cpu time spent up to now is      197.9 secs

     total energy              =   -3964.20761808 Ry
     estimated scf accuracy    <       0.00149766 Ry

     total magnetization       =    37.76 Bohr mag/cell
     absolute magnetization    =    40.74 Bohr mag/cell

     iteration # 12     ecut=    45.00 Ry     beta= 0.10
     Davidson diagonalization with overlap
     ethr =  5.85E-07,  avg # of iterations =  2.1

     negative rho (up, down):  0.000E+00 4.730E-03

     total cpu time spent up to now is      214.5 secs

     total energy              =   -3964.20356318 Ry
     estimated scf accuracy    <       0.00266947 Ry

     total magnetization       =    37.98 Bohr mag/cell
     absolute magnetization    =    40.97 Bohr mag/cell

     iteration # 13     ecut=    45.00 Ry     beta= 0.10
     Davidson diagonalization with overlap
     ethr =  5.85E-07,  avg # of iterations =  5.1

     negative rho (up, down):  0.000E+00 4.648E-03

     total cpu time spent up to now is      239.8 secs

     total energy              =   -3964.21139537 Ry
     estimated scf accuracy    <       0.00002642 Ry

     total magnetization       =    36.63 Bohr mag/cell
     absolute magnetization    =    39.35 Bohr mag/cell

     iteration # 14     ecut=    45.00 Ry     beta= 0.10
     Davidson diagonalization with overlap
     ethr =  1.03E-08,  avg # of iterations =  4.2

     negative rho (up, down):  0.000E+00 4.640E-03

     total cpu time spent up to now is      263.4 secs

     total energy              =   -3964.21201964 Ry
     estimated scf accuracy    <       0.00002567 Ry

     total magnetization       =    36.64 Bohr mag/cell
     absolute magnetization    =    39.36 Bohr mag/cell

     iteration # 15     ecut=    45.00 Ry     beta= 0.10
     Davidson diagonalization with overlap
     ethr =  1.00E-08,  avg # of iterations =  1.0

     negative rho (up, down):  0.000E+00 4.640E-03

     total cpu time spent up to now is      278.5 secs

     total energy              =   -3964.21253471 Ry
     estimated scf accuracy    <       0.00001377 Ry

     total magnetization       =    36.66 Bohr mag/cell
     absolute magnetization    =    39.37 Bohr mag/cell

     iteration # 16     ecut=    45.00 Ry     beta= 0.10
     Davidson diagonalization with overlap
     ethr =  5.38E-09,  avg # of iterations =  1.5

     negative rho (up, down):  0.000E+00 4.690E-03

     total cpu time spent up to now is      294.8 secs

     total energy              =   -3964.21295896 Ry
     estimated scf accuracy    <       0.00001169 Ry

     total magnetization       =    36.67 Bohr mag/cell
     absolute magnetization    =    39.39 Bohr mag/cell

     iteration # 17     ecut=    45.00 Ry     beta= 0.10
     Davidson diagonalization with overlap
     ethr =  4.57E-09,  avg # of iterations =  4.2

     negative rho (up, down):  0.000E+00 4.664E-03

     total cpu time spent up to now is      317.0 secs

     total energy              =   -3964.21328966 Ry
     estimated scf accuracy    <       0.00000103 Ry

     total magnetization       =    36.74 Bohr mag/cell
     absolute magnetization    =    39.47 Bohr mag/cell

     iteration # 18     ecut=    45.00 Ry     beta= 0.10
     Davidson diagonalization with overlap
     ethr =  4.04E-10,  avg # of iterations =  3.9

     negative rho (up, down):  0.000E+00 4.529E-03

     Magnetic moment per site  (integrated on atomic sphere of radius R)
     atom   1 (R=0.179)  charge= 14.4223  magn=  2.3728
     atom   2 (R=0.179)  charge= 14.4223  magn=  2.3732
     atom   3 (R=0.179)  charge= 14.4223  magn=  2.3732
     atom   4 (R=0.179)  charge= 14.4223  magn=  2.3731
     atom   5 (R=0.179)  charge= 14.4223  magn=  2.3732
     atom   6 (R=0.179)  charge= 14.4223  magn=  2.3731
     atom   7 (R=0.179)  charge= 14.4223  magn=  2.3731
     atom   8 (R=0.179)  charge= 14.4223  magn=  2.3729
     atom   9 (R=0.179)  charge= 14.4223  magn=  2.3730
     atom  10 (R=0.179)  charge= 14.4223  magn=  2.3730
     atom  11 (R=0.179)  charge= 14.4223  magn=  2.3730
     atom  12 (R=0.179)  charge= 14.4223  magn=  2.3730
     atom  13 (R=0.179)  charge= 14.4223  magn=  2.3730
     atom  14 (R=0.179)  charge= 14.4223  magn=  2.3730
     atom  15 (R=0.179)  charge= 14.4223  magn=  2.3730
     atom  16 (R=0.179)  charge= 14.4223  magn=  2.3730

     total cpu time spent up to now is      336.3 secs

     End of self-consistent calculation

 ------ SPIN UP ------------


          k = 0.0000 0.0000 0.0000 (  6451 PWs)   bands (ev):

   -70.7417 -70.6793 -70.6793 -70.6792 -70.6792 -70.6792 -70.6791 -70.6744
   -70.6744 -70.6743 -70.6743 -70.6743 -70.6742 -70.6704 -70.6704 -70.6249
   -36.8733 -36.8733 -36.8733 -36.8732 -36.8732 -36.8732 -36.7867 -36.7867
   -36.7867 -36.7123 -36.7123 -36.7123 -36.7123 -36.7122 -36.7122 -36.7018
   -36.7018 -36.7018 -36.7018 -36.7018 -36.7018 -36.6517 -36.6517 -36.6517
   -36.6515 -36.6515 -36.6515 -36.6515 -36.6515 -36.6515 -36.6515 -36.6515
   -36.6515 -36.6377 -36.6377 -36.6377 -36.6377 -36.6376 -36.6376 -36.5106
   -36.5106 -36.5106 -36.5054 -36.5054 -36.5054 -36.5053 -36.5053 -36.5053
     9.2379  12.7726  12.7726  12.7726  12.7727  12.7727  12.7727  12.8577
    12.8577  12.9650  12.9650  12.9650  12.9650  12.9650  12.9650  14.2453
    14.2453  14.2453  14.2454  14.2454  14.2454  14.3318  14.3318  14.3318
    14.3319  14.3319  14.3319  14.6033  14.6034  14.6034  14.6034  14.6034
    14.6034  15.2804  15.2804  15.2804  15.6144  15.6144  15.6144  15.6146
    15.6146  15.6146  15.6146  15.6146  15.6146  15.6146  15.6146  15.6146
    16.3430  16.3430  16.3430  16.3431  16.3431  16.3431  16.4223  16.4223
    16.4977  16.4978  16.4978  16.4978  16.4978  16.4978  16.6022  16.6022
    16.6023  16.6023  16.6191  16.6192  16.6192  16.6192  16.6192  16.6192
    17.4789  17.4789  17.4789  17.6428  17.6428  17.6428  17.6428  17.6428
    17.6428  17.7626  17.7626  17.7626  17.7627  17.7627  17.7627  17.9762
    17.9762  17.9763

          k = 0.0000 0.0000 0.2500 (  6495 PWs)   bands (ev):

   -70.7369 -70.7020 -70.6786 -70.6784 -70.6784 -70.6784 -70.6754 -70.6753
   -70.6753 -70.6753 -70.6740 -70.6739 -70.6709 -70.6708 -70.6574 -70.6283
   -36.8704 -36.8704 -36.8689 -36.8688 -36.8688 -36.8688 -36.7708 -36.7658
   -36.7658 -36.7657 -36.7657 -36.7601 -36.7559 -36.7559 -36.7559 -36.7559
   -36.7012 -36.7012 -36.6816 -36.6815 -36.6527 -36.6526 -36.6515 -36.6515
   -36.6514 -36.6514 -36.6462 -36.6462 -36.6462 -36.6462 -36.6389 -36.6298
   -36.6298 -36.6084 -36.6083 -36.6083 -36.6083 -36.5999 -36.5999 -36.5424
   -36.5308 -36.5308 -36.5266 -36.5266 -36.5246 -36.5245 -36.5245 -36.5245
     9.5443  11.7370  12.8321  12.8321  12.8321  12.8321  12.9543  12.9543
    13.0093  13.0154  13.0380  13.0380  13.0380  13.0380  13.4394  13.9251
    14.0676  14.0677  14.1666  14.1666  14.2068  14.2068  14.3582  14.3582
    14.3582  14.3583  14.5765  14.5766  14.5766  14.5766  14.7940  14.7940
    15.2205  15.2205  15.2252  15.2252  15.2252  15.2253  15.2914  15.3260
    15.3664  15.3664  15.8578  15.8578  15.8578  15.8578  15.9147  15.9390
    15.9391  15.9391  15.9391  16.0697  16.0697  16.2653  16.4107  16.4108
    16.4108  16.4108  16.4606  16.4859  16.4860  16.5128  16.5128  16.6007
    16.6008  16.6093  16.6093  16.6127  16.6127  16.7241  16.7241  16.7241
    16.7241  16.7874  16.9652  17.2851  17.2851  17.4147  17.6044  17.6044
    17.6044  17.6044  17.7305  17.7305  17.7305  17.7305  18.0496  18.0496
    18.0496  18.0497

          k = 0.0000 0.0000-0.5000 (  6480 PWs)   bands (ev):

   -70.7227 -70.7227 -70.6770 -70.6770 -70.6769 -70.6769 -70.6769 -70.6769
   -70.6769 -70.6768 -70.6724 -70.6724 -70.6723 -70.6723 -70.6396 -70.6396
   -36.8295 -36.8295 -36.8295 -36.8295 -36.8200 -36.8200 -36.8200 -36.8200
   -36.8200 -36.8200 -36.8200 -36.8200 -36.7725 -36.7725 -36.7369 -36.7369
   -36.7369 -36.7369 -36.6669 -36.6669 -36.6668 -36.6668 -36.6508 -36.6508
   -36.6508 -36.6508 -36.6508 -36.6508 -36.6507 -36.6507 -36.5865 -36.5865
   -36.5665 -36.5665 -36.5665 -36.5665 -36.5573 -36.5573 -36.5572 -36.5572
   -36.5572 -36.5572 -36.5572 -36.5572 -36.5565 -36.5565 -36.5564 -36.5564
    10.4403  10.4403  13.0020  13.0020  13.0020  13.0020  13.0020  13.0020
    13.0020  13.0020  13.2964  13.2965  13.3856  13.3856  13.4858  13.4858
    13.4858  13.4858  14.1498  14.1498  14.1498  14.1498  14.6960  14.6960
    14.6960  14.6960  14.6961  14.6961  14.6961  14.6961  14.9972  14.9972
    14.9973  14.9973  14.9973  14.9973  14.9973  14.9973  15.2585  15.2585
    15.2585  15.2585  15.4874  15.4874  15.4874  15.4874  15.5634  15.5634
    15.8822  15.8822  16.2067  16.2068  16.2068  16.2068  16.2068  16.2068
    16.2068  16.2068  16.5658  16.5658  16.5659  16.5659  16.6148  16.6148
    16.6161  16.6161  16.6162  16.6162  16.6914  16.6914  16.6914  16.6914
    17.1788  17.1788  17.2532  17.2532  17.2532  17.2532  17.2532  17.2532
    17.2533  17.2533  17.9263  17.9264  17.9264  17.9264  17.9264  17.9264
    17.9264  17.9264

          k = 0.0000 0.2500 0.2500 (  6500 PWs)   bands (ev):

   -70.7321 -70.6998 -70.6997 -70.6846 -70.6778 -70.6777 -70.6748 -70.6746
   -70.6746 -70.6746 -70.6715 -70.6714 -70.6674 -70.6586 -70.6585 -70.6319
   -36.8698 -36.8569 -36.8568 -36.8568 -36.8568 -36.8346 -36.7984 -36.7983
   -36.7917 -36.7832 -36.7832 -36.7742 -36.7742 -36.7565 -36.7429 -36.6994
   -36.6993 -36.6956 -36.6955 -36.6861 -36.6860 -36.6686 -36.6650 -36.6649
   -36.6567 -36.6566 -36.6566 -36.6566 -36.6549 -36.6548 -36.6280 -36.6042
   -36.6041 -36.5984 -36.5984 -36.5849 -36.5848 -36.5760 -36.5614 -36.5614
   -36.5565 -36.5396 -36.5335 -36.5335 -36.5335 -36.5335 -36.5154 -36.5138
     9.8513  11.9301  11.9302  12.6419  13.0393  13.0393  13.0393  13.0393
    13.0710  13.1097  13.1541  13.1671  13.1671  13.4945  13.4945  13.9551
    13.9551  13.9951  13.9951  14.2964  14.2964  14.2983  14.2983  14.2984
    14.2984  14.3766  14.4312  14.4313  14.5745  14.7075  14.7075  15.0130
    15.0131  15.0187  15.0188  15.0959  15.1661  15.1661  15.2258  15.2613
    15.5415  15.6287  15.6288  15.7389  15.7389  15.7390  15.7390  15.8171
    15.8172  15.9246  15.9246  16.0306  16.0306  16.0833  16.2194  16.2764
    16.3014  16.3015  16.4179  16.4292  16.4292  16.4292  16.4292  16.5203
    16.5442  16.6055  16.6056  16.6287  16.6287  16.8524  16.8524  16.8703
    16.8845  16.8846  16.9322  16.9323  16.9323  16.9323  17.0037  17.1262
    17.1263  17.2930  17.5553  17.6930  18.0021  18.0022  19.1878  19.1878
    19.1878  19.1878

          k = 0.0000 0.2500-0.5000 (  6452 PWs)   bands (ev):

   -70.7189 -70.7189 -70.6932 -70.6932 -70.6763 -70.6762 -70.6762 -70.6762
   -70.6729 -70.6729 -70.6729 -70.6729 -70.6616 -70.6616 -70.6423 -70.6423
   -36.8402 -36.8402 -36.8218 -36.8218 -36.8218 -36.8218 -36.8194 -36.8194
   -36.8194 -36.8194 -36.8036 -36.8036 -36.7641 -36.7641 -36.7336 -36.7336
   -36.7091 -36.7091 -36.6840 -36.6840 -36.6668 -36.6668 -36.6667 -36.6667
   -36.6583 -36.6583 -36.6582 -36.6582 -36.6357 -36.6357 -36.6109 -36.6109
   -36.6026 -36.6026 -36.5654 -36.5654 -36.5556 -36.5556 -36.5556 -36.5556
   -36.5520 -36.5520 -36.5520 -36.5520 -36.5307 -36.5307 -36.5229 -36.5229
    10.7119  10.7120  12.3475  12.3475  13.2146  13.2146  13.2146  13.2146
    13.3491  13.3492  13.3791  13.3791  13.4963  13.4963  13.5658  13.5658
    13.5658  13.5658  14.2288  14.2288  14.2288  14.2288  14.4759  14.4759
    14.4759  14.4759  14.5077  14.5078  14.6230  14.6230  14.9820  14.9820
    15.0157  15.0157  15.0157  15.0157  15.0297  15.0297  15.1483  15.1483
    15.1657  15.1657  15.1657  15.1657  15.2138  15.2138  15.8935  15.8935
    16.0486  16.0486  16.0764  16.0764  16.2183  16.2183  16.2266  16.2266
    16.2266  16.2266  16.2457  16.2457  16.4773  16.4773  16.5320  16.5321
    16.5321  16.5321  16.5492  16.5492  16.7026  16.7026  16.7026  16.7026
    16.7547  16.7547  16.8551  16.8551  16.9571  16.9571  16.9571  16.9571
    17.4465  17.4465  17.5480  17.5480  18.5898  18.5898  18.5898  18.5898
    20.1458  20.1459

          k = 0.0000-0.5000-0.5000 (  6496 PWs)   bands (ev):

   -70.7083 -70.7083 -70.7083 -70.7083 -70.6748 -70.6748 -70.6746 -70.6746
   -70.6746 -70.6746 -70.6746 -70.6746 -70.6498 -70.6498 -70.6497 -70.6497
   -36.8321 -36.8321 -36.8320 -36.8320 -36.8195 -36.8195 -36.8195 -36.8195
   -36.8195 -36.8194 -36.8194 -36.8194 -36.7191 -36.7191 -36.7190 -36.7190
   -36.6998 -36.6998 -36.6997 -36.6997 -36.6724 -36.6724 -36.6723 -36.6723
   -36.6722 -36.6722 -36.6722 -36.6722 -36.6586 -36.6586 -36.6585 -36.6585
   -36.5829 -36.5829 -36.5828 -36.5828 -36.5530 -36.5530 -36.5530 -36.5530
   -36.5530 -36.5529 -36.5529 -36.5529 -36.5150 -36.5150 -36.5150 -36.5150
    11.4481  11.4481  11.4482  11.4482  13.4368  13.4368  13.4368  13.4368
    13.5852  13.5852  13.5852  13.5852  13.5853  13.5853  13.5853  13.5853
    13.9494  13.9494  13.9495  13.9495  14.2683  14.2683  14.2683  14.2683
    14.2683  14.2684  14.2684  14.2684  14.7335  14.7336  14.7336  14.7336
    14.8676  14.8676  14.8677  14.8677  14.8677  14.8677  14.8677  14.8678
    15.1236  15.1236  15.1236  15.1237  15.5601  15.5602  15.5602  15.5602
    16.1430  16.1430  16.1430  16.1431  16.2389  16.2389  16.2390  16.2390
    16.3606  16.3606  16.3606  16.3606  16.3607  16.3607  16.3607  16.3607
    16.3689  16.3689  16.3690  16.3690  16.4851  16.4851  16.4852  16.4852
    16.7749  16.7749  16.7750  16.7750  16.7750  16.7750  16.7750  16.7750
    17.6068  17.6068  17.6069  17.6069  19.6392  19.6392  19.6392  19.6392
    19.6392  19.6392

          k = 0.2500 0.2500 0.2500 (  6493 PWs)   bands (ev):

   -70.7276 -70.6975 -70.6975 -70.6974 -70.6833 -70.6833 -70.6832 -70.6755
   -70.6688 -70.6673 -70.6673 -70.6672 -70.6594 -70.6594 -70.6593 -70.6353
   -36.8516 -36.8515 -36.8515 -36.8271 -36.8271 -36.8270 -36.8070 -36.8070
   -36.8069 -36.8025 -36.7886 -36.7886 -36.7563 -36.7563 -36.7243 -36.7243
   -36.7243 -36.7196 -36.7082 -36.7081 -36.7081 -36.6823 -36.6823 -36.6823
   -36.6359 -36.6359 -36.6359 -36.6300 -36.6300 -36.6300 -36.6227 -36.6227
   -36.6038 -36.6010 -36.6009 -36.6009 -36.5771 -36.5532 -36.5532 -36.5532
   -36.5472 -36.5472 -36.5471 -36.5300 -36.5299 -36.5299 -36.5253 -36.5253
    10.1509  12.1455  12.1455  12.1456  12.8787  12.8787  12.8787  13.2387
    13.2387  13.2802  13.2802  13.2802  13.6417  13.6417  13.6417  13.8792
    13.9806  13.9806  13.9806  14.1997  14.1997  14.3176  14.3220  14.3220
    14.3220  14.4787  14.4787  14.4787  14.5423  14.5423  14.7601  14.7602
    14.7602  14.9740  14.9740  14.9741  15.0506  15.0506  15.1735  15.1735
    15.1735  15.2932  15.2933  15.2933  15.5602  15.5602  15.5603  15.8156
    15.9398  15.9398  15.9398  16.2124  16.2125  16.2125  16.3095  16.3234
    16.3234  16.3234  16.3555  16.3555  16.4215  16.4215  16.4215  16.5648
    16.5649  16.5649  16.5779  16.5779  16.5982  16.5983  16.5983  16.6354
    16.6354  16.9414  16.9415  16.9415  17.1315  17.1315  17.1316  17.2750
    17.2750  17.2841  17.2841  17.2841  18.1134  18.1134  18.1134  20.0171
    20.0171  20.0172

          k = 0.2500 0.2500-0.5000 (  6456 PWs)   bands (ev):

   -70.7153 -70.7153 -70.6914 -70.6914 -70.6914 -70.6913 -70.6797 -70.6797
   -70.6676 -70.6676 -70.6622 -70.6622 -70.6622 -70.6621 -70.6445 -70.6445
   -36.8328 -36.8328 -36.8328 -36.8328 -36.8147 -36.8147 -36.8145 -36.8145
   -36.7993 -36.7993 -36.7731 -36.7731 -36.7731 -36.7731 -36.7544 -36.7544
   -36.7151 -36.7151 -36.7045 -36.7045 -36.7045 -36.7045 -36.6766 -36.6766
   -36.6655 -36.6655 -36.6274 -36.6274 -36.6099 -36.6099 -36.6099 -36.6099
   -36.5868 -36.5868 -36.5867 -36.5867 -36.5655 -36.5655 -36.5578 -36.5578
   -36.5571 -36.5570 -36.5320 -36.5320 -36.5319 -36.5319 -36.5291 -36.5291
    10.9875  10.9875  12.5952  12.5952  12.5952  12.5952  13.5216  13.5216
    13.5469  13.5469  13.5535  13.5535  13.5535  13.5535  13.5579  13.5579
    13.7147  13.7147  14.2392  14.2392  14.3229  14.3229  14.3879  14.3879
    14.3880  14.3880  14.5278  14.5278  14.5279  14.5279  14.7987  14.7987
    14.9001  14.9001  14.9001  14.9001  14.9019  14.9019  14.9229  14.9229
    14.9361  14.9362  14.9464  14.9464  14.9464  14.9464  15.6913  15.6913
    16.1474  16.1474  16.2068  16.2068  16.2430  16.2430  16.2430  16.2431
    16.2494  16.2494  16.2494  16.2494  16.5032  16.5032  16.5161  16.5161
    16.5237  16.5237  16.5874  16.5874  16.6576  16.6576  16.6576  16.6576
    16.7371  16.7371  16.8187  16.8187  17.2609  17.2609  17.2610  17.2610
    17.3483  17.3483  17.4266  17.4266  17.4266  17.4266  19.3482  19.3482
    20.6856  20.6856

          k = 0.2500-0.5000-0.5000 (  6472 PWs)   bands (ev):

   -70.7055 -70.7055 -70.7054 -70.7054 -70.6865 -70.6865 -70.6864 -70.6864
   -70.6641 -70.6641 -70.6640 -70.6640 -70.6513 -70.6513 -70.6513 -70.6512
   -36.8177 -36.8177 -36.8177 -36.8177 -36.8127 -36.8127 -36.8127 -36.8127
   -36.7945 -36.7945 -36.7945 -36.7945 -36.7422 -36.7422 -36.7422 -36.7421
   -36.7308 -36.7308 -36.7307 -36.7307 -36.7162 -36.7162 -36.7161 -36.7161
   -36.6342 -36.6342 -36.6342 -36.6342 -36.6119 -36.6119 -36.6118 -36.6118
   -36.5747 -36.5747 -36.5746 -36.5746 -36.5680 -36.5680 -36.5680 -36.5680
   -36.5518 -36.5518 -36.5518 -36.5518 -36.5304 -36.5304 -36.5303 -36.5303
    11.7167  11.7167  11.7168  11.7168  13.1838  13.1838  13.1838  13.1839
    13.6311  13.6311  13.6311  13.6312  13.9400  13.9400  13.9400  13.9400
    13.9957  13.9957  13.9958  13.9958  14.1824  14.1824  14.1824  14.1824
    14.3835  14.3835  14.3835  14.3835  14.5607  14.5607  14.5607  14.5607
    14.6575  14.6575  14.6576  14.6576  14.7083  14.7083  14.7084  14.7084
    14.8378  14.8378  14.8378  14.8378  15.1050  15.1050  15.1050  15.1050
    16.2910  16.2910  16.2911  16.2911  16.3781  16.3781  16.3781  16.3781
    16.4720  16.4720  16.4720  16.4720  16.4890  16.4890  16.4891  16.4891
    16.5095  16.5095  16.5095  16.5095  16.6098  16.6098  16.6099  16.6099
    16.7731  16.7731  16.7731  16.7731  16.9206  16.9206  16.9207  16.9207
    17.3499  17.3499  17.3499  17.3499  18.3100  18.3100  18.3100  18.3100
    21.7762  21.7762

          k =-0.5000-0.5000-0.5000 (  6488 PWs)   bands (ev):

   -70.6977 -70.6977 -70.6977 -70.6977 -70.6977 -70.6977 -70.6976 -70.6975
   -70.6559 -70.6559 -70.6559 -70.6559 -70.6559 -70.6559 -70.6558 -70.6558
   -36.7784 -36.7784 -36.7784 -36.7784 -36.7784 -36.7784 -36.7784 -36.7784
   -36.7784 -36.7784 -36.7784 -36.7784 -36.7784 -36.7783 -36.7783 -36.7783
   -36.7611 -36.7611 -36.7611 -36.7611 -36.7611 -36.7610 -36.7610 -36.7610
   -36.5903 -36.5903 -36.5903 -36.5903 -36.5903 -36.5902 -36.5902 -36.5902
   -36.5678 -36.5678 -36.5678 -36.5678 -36.5678 -36.5678 -36.5678 -36.5678
   -36.5678 -36.5678 -36.5677 -36.5677 -36.5677 -36.5677 -36.5677 -36.5677
    12.4238  12.4238  12.4238  12.4238  12.4238  12.4238  12.4238  12.4239
    14.0995  14.0995  14.0995  14.0995  14.0995  14.0995  14.0995  14.0995
    14.0995  14.0995  14.0995  14.0995  14.0995  14.0995  14.0996  14.0996
    14.4984  14.4984  14.4984  14.4984  14.4984  14.4984  14.4984  14.4984
    14.4984  14.4984  14.4985  14.4985  14.4985  14.4985  14.4985  14.4985
    14.5541  14.5541  14.5541  14.5541  14.5541  14.5542  14.5542  14.5542
    16.4180  16.4180  16.4180  16.4180  16.4180  16.4180  16.4180  16.4180
    16.4180  16.4180  16.4180  16.4180  16.4181  16.4181  16.4182  16.4182
    16.8602  16.8602  16.8602  16.8602  16.8602  16.8602  16.8603  16.8603
    16.8603  16.8603  16.8603  16.8603  16.8603  16.8604  16.8604  16.8604
    17.4443  17.4443  17.4443  17.4443  17.4443  17.4444  17.4444  17.4444
    24.3327  24.3327

 ------ SPIN DOWN ----------


          k = 0.0000 0.0000 0.0000 (  6451 PWs)   bands (ev):

   -67.7531 -67.6837 -67.6836 -67.6836 -67.6836 -67.6835 -67.6835 -67.6785
   -67.6784 -67.6784 -67.6784 -67.6783 -67.6783 -67.6736 -67.6736 -67.6236
   -34.0081 -34.0081 -34.0081 -34.0080 -34.0080 -34.0080 -33.9047 -33.9047
   -33.9047 -33.8242 -33.8241 -33.8241 -33.8241 -33.8241 -33.8241 -33.8112
   -33.8112 -33.8112 -33.8112 -33.8112 -33.8112 -33.7528 -33.7528 -33.7528
   -33.7528 -33.7528 -33.7528 -33.7527 -33.7527 -33.7527 -33.7527 -33.7527
   -33.7527 -33.7382 -33.7382 -33.7382 -33.7382 -33.7382 -33.7382 -33.5969
   -33.5969 -33.5969 -33.5926 -33.5926 -33.5926 -33.5925 -33.5925 -33.5925
     9.3291  13.4942  13.4942  13.4942  13.4942  13.4943  13.4943  14.1345
    14.1345  14.1345  14.1345  14.1345  14.1345  14.7582  14.7582  15.9035
    15.9035  15.9035  15.9035  15.9035  15.9035  16.2045  16.2045  16.2045
    16.2045  16.2045  16.2045  16.9560  16.9560  16.9560  16.9560  16.9560
    16.9560  17.4872  17.4872  17.4872  17.7508  17.7508  17.7508  17.7508
    17.7508  17.7508  17.7508  17.7508  17.7508  17.7509  17.7509  17.7509
    18.0236  18.0236  18.0236  18.0237  18.0237  18.0237  18.7161  18.7162
    18.7162  18.7162  18.7162  18.7162  19.2754  19.2754  19.2754  19.2754
    19.2754  19.2754  19.3696  19.3696  19.6409  19.6409  19.6409  19.6409
    19.6430  19.6430  19.6430  19.6430  19.6430  19.6430  20.0430  20.0430
    20.0430  20.2019  20.2019  20.2019  20.2019  20.2019  20.2020  20.3667
    20.3667  20.3667

          k = 0.0000 0.0000 0.2500 (  6495 PWs)   bands (ev):

   -67.7476 -67.7091 -67.6829 -67.6828 -67.6828 -67.6828 -67.6793 -67.6792
   -67.6792 -67.6792 -67.6778 -67.6777 -67.6742 -67.6742 -67.6595 -67.6277
   -34.0026 -34.0026 -34.0009 -34.0008 -34.0008 -34.0008 -33.8897 -33.8848
   -33.8848 -33.8830 -33.8830 -33.8764 -33.8735 -33.8734 -33.8734 -33.8734
   -33.8086 -33.8086 -33.7901 -33.7901 -33.7544 -33.7544 -33.7525 -33.7525
   -33.7525 -33.7525 -33.7466 -33.7465 -33.7465 -33.7465 -33.7435 -33.7303
   -33.7303 -33.7052 -33.7052 -33.7052 -33.7051 -33.6953 -33.6953 -33.6308
   -33.6177 -33.6177 -33.6151 -33.6151 -33.6124 -33.6124 -33.6124 -33.6123
     9.6399  11.9347  13.6549  13.6549  13.6549  13.6549  14.1075  14.1075
    14.1075  14.1075  14.3451  14.3451  14.6461  14.8705  14.9413  15.6025
    15.6025  15.8722  15.8722  16.0874  16.1313  16.1313  16.2162  16.2162
    16.3362  16.3362  16.3362  16.3362  16.7342  16.7343  16.7343  16.7343
    17.3243  17.3243  17.3243  17.3243  17.3873  17.3873  17.3873  17.3873
    17.4164  17.4164  17.5011  17.5011  17.5103  17.5103  17.5462  17.8565
    18.1565  18.1565  18.1565  18.1566  18.2218  18.2549  18.2549  19.1146
    19.1147  19.1147  19.1147  19.1428  19.1428  19.1428  19.1428  19.1648
    19.2299  19.2921  19.2921  19.4244  19.5925  19.5925  19.6271  19.6271
    19.6483  19.6483  19.7473  19.7473  19.8964  19.9620  19.9765  19.9765
    19.9765  19.9765  20.1841  20.1841  20.1842  20.1842  20.2233  20.2233
    20.2233  20.2233

          k = 0.0000 0.0000-0.5000 (  6480 PWs)   bands (ev):

   -67.7318 -67.7318 -67.6811 -67.6811 -67.6811 -67.6811 -67.6811 -67.6811
   -67.6810 -67.6809 -67.6760 -67.6760 -67.6760 -67.6760 -67.6401 -67.6401
   -33.9563 -33.9563 -33.9563 -33.9563 -33.9459 -33.9459 -33.9458 -33.9458
   -33.9458 -33.9458 -33.9458 -33.9458 -33.8913 -33.8913 -33.8500 -33.8500
   -33.8500 -33.8500 -33.7722 -33.7722 -33.7722 -33.7722 -33.7516 -33.7516
   -33.7516 -33.7516 -33.7516 -33.7516 -33.7515 -33.7515 -33.6822 -33.6822
   -33.6599 -33.6599 -33.6599 -33.6599 -33.6485 -33.6485 -33.6485 -33.6485
   -33.6485 -33.6485 -33.6485 -33.6484 -33.6468 -33.6468 -33.6468 -33.6468
    10.5537  10.5537  13.9641  13.9641  13.9641  13.9641  13.9641  13.9641
    13.9641  13.9642  14.9414  14.9414  14.9414  14.9414  14.9851  14.9852
    15.4002  15.4002  15.9807  15.9807  15.9807  15.9807  16.7255  16.7256
    16.7256  16.7256  16.7256  16.7256  16.7256  16.7256  16.7352  16.7352
    16.7352  16.7352  16.7352  16.7352  16.7352  16.7352  16.7514  16.7514
    16.7514  16.7514  17.4215  17.4215  17.4215  17.4215  17.8173  17.8173
    18.6433  18.6433  18.7337  18.7337  18.7337  18.7337  18.7337  18.7337
    18.7337  18.7337  18.9881  18.9881  18.9881  18.9881  19.4478  19.4478
    19.4478  19.4478  19.6042  19.6042  19.6468  19.6468  19.6468  19.6468
    19.6828  19.6828  19.7623  19.7624  19.7624  19.7624  19.7624  19.7624
    19.7624  19.7624  20.2113  20.2113  20.2113  20.2113  20.2113  20.2113
    20.2113  20.2113

          k = 0.0000 0.2500 0.2500 (  6500 PWs)   bands (ev):

   -67.7423 -67.7065 -67.7064 -67.6895 -67.6821 -67.6821 -67.6786 -67.6785
   -67.6785 -67.6785 -67.6750 -67.6750 -67.6704 -67.6606 -67.6606 -67.6316
   -34.0019 -33.9872 -33.9872 -33.9872 -33.9872 -33.9622 -33.9197 -33.9196
   -33.9126 -33.9046 -33.9046 -33.8942 -33.8942 -33.8725 -33.8566 -33.8059
   -33.8059 -33.8059 -33.8059 -33.7948 -33.7948 -33.7713 -33.7676 -33.7676
   -33.7587 -33.7587 -33.7586 -33.7586 -33.7575 -33.7575 -33.7261 -33.6998
   -33.6998 -33.6957 -33.6957 -33.6789 -33.6789 -33.6692 -33.6529 -33.6529
   -33.6476 -33.6276 -33.6225 -33.6224 -33.6224 -33.6224 -33.6017 -33.6000
     9.9511  12.1714  12.1714  13.5291  13.8369  13.8369  14.3407  14.3407
    14.3407  14.3407  14.5424  14.7648  14.7648  15.0193  15.0260  15.5241
    15.5241  15.9382  15.9382  16.0564  16.0564  16.1324  16.1324  16.2363
    16.2364  16.2364  16.2364  16.3677  16.5145  16.5145  16.5760  16.9082
    17.0777  17.0777  17.0777  17.0777  17.1185  17.1185  17.1430  17.1430
    17.1674  17.1674  17.1681  17.2615  17.4011  17.7700  17.7700  17.7907
    18.2914  18.2915  18.3404  18.3404  18.3471  18.3471  18.6516  18.6516
    18.8264  19.1648  19.1686  19.1749  19.1749  19.1749  19.1749  19.2359
    19.3689  19.3746  19.4139  19.4139  19.5485  19.5526  19.5526  19.6154
    19.6155  19.6273  19.6273  19.7040  19.7040  19.7040  19.7040  19.8088
    19.8088  19.8134  20.1241  20.2922  20.3493  20.3493  21.0274  21.0274
    21.0275  21.0275

          k = 0.0000 0.2500-0.5000 (  6452 PWs)   bands (ev):

   -67.7276 -67.7276 -67.6993 -67.6993 -67.6803 -67.6803 -67.6803 -67.6803
   -67.6767 -67.6767 -67.6767 -67.6767 -67.6642 -67.6642 -67.6429 -67.6429
   -33.9685 -33.9685 -33.9481 -33.9481 -33.9481 -33.9481 -33.9449 -33.9449
   -33.9449 -33.9449 -33.9260 -33.9260 -33.8841 -33.8841 -33.8455 -33.8455
   -33.8177 -33.8177 -33.7891 -33.7891 -33.7729 -33.7729 -33.7729 -33.7729
   -33.7610 -33.7610 -33.7610 -33.7610 -33.7371 -33.7371 -33.7077 -33.7077
   -33.6989 -33.6989 -33.6563 -33.6563 -33.6482 -33.6482 -33.6482 -33.6482
   -33.6430 -33.6430 -33.6430 -33.6430 -33.6182 -33.6182 -33.6105 -33.6105
    10.8387  10.8387  12.7963  12.7963  14.1909  14.1909  14.1909  14.1909
    14.8270  14.8270  14.9486  14.9486  14.9486  14.9487  15.1283  15.1283
    15.4371  15.4371  16.0503  16.0503  16.0503  16.0503  16.2745  16.2745
    16.3856  16.3856  16.3856  16.3856  16.5286  16.5286  16.5286  16.5286
    16.6582  16.6582  16.7814  16.7814  16.7814  16.7814  16.9569  16.9569
    17.0893  17.0893  17.1099  17.1099  17.2776  17.2777  18.1870  18.1870
    18.4512  18.4513  18.5058  18.5058  18.7320  18.7320  18.8191  18.8191
    18.8191  18.8191  18.8200  18.8200  18.8983  18.8983  19.2918  19.2919
    19.3735  19.3735  19.3735  19.3735  19.5259  19.5259  19.6514  19.6514
    19.6514  19.6514  19.6712  19.6712  19.6712  19.6712  19.6734  19.6734
    19.9931  19.9931  20.1128  20.1128  20.6943  20.6943  20.6943  20.6943
    21.6607  21.6607

          k = 0.0000-0.5000-0.5000 (  6496 PWs)   bands (ev):

   -67.7159 -67.7159 -67.7159 -67.7159 -67.6786 -67.6786 -67.6786 -67.6786
   -67.6786 -67.6786 -67.6785 -67.6785 -67.6511 -67.6511 -67.6510 -67.6510
   -33.9587 -33.9587 -33.9587 -33.9587 -33.9447 -33.9447 -33.9447 -33.9447
   -33.9446 -33.9446 -33.9446 -33.9446 -33.8280 -33.8280 -33.8280 -33.8280
   -33.8109 -33.8109 -33.8108 -33.8108 -33.7778 -33.7778 -33.7778 -33.7778
   -33.7777 -33.7777 -33.7777 -33.7777 -33.7608 -33.7608 -33.7607 -33.7607
   -33.6761 -33.6761 -33.6761 -33.6761 -33.6440 -33.6440 -33.6440 -33.6440
   -33.6440 -33.6440 -33.6440 -33.6440 -33.6011 -33.6011 -33.6010 -33.6010
    11.6457  11.6457  11.6457  11.6457  14.6883  14.6883  14.6883  14.6883
    14.6884  14.6884  14.6884  14.6884  15.2275  15.2275  15.2276  15.2276
    15.7300  15.7300  15.7300  15.7300  16.0914  16.0914  16.0914  16.0914
    16.0914  16.0914  16.0914  16.0915  16.5309  16.5309  16.5309  16.5309
    16.5310  16.5310  16.5310  16.5310  16.8059  16.8059  16.8060  16.8060
    17.0931  17.0931  17.0931  17.0931  17.6913  17.6913  17.6913  17.6913
    18.4198  18.4198  18.4198  18.4198  18.7322  18.7322  18.7323  18.7323
    19.0258  19.0258  19.0258  19.0258  19.0864  19.0864  19.0864  19.0864
    19.0864  19.0864  19.0864  19.0864  19.4532  19.4532  19.4532  19.4532
    19.6304  19.6304  19.6305  19.6305  19.6305  19.6305  19.6305  19.6305
    20.1911  20.1911  20.1912  20.1912  21.5428  21.5429  21.5429  21.5429
    21.5429  21.5429

          k = 0.2500 0.2500 0.2500 (  6493 PWs)   bands (ev):

   -67.7373 -67.7040 -67.7039 -67.7039 -67.6881 -67.6880 -67.6880 -67.6794
   -67.6721 -67.6705 -67.6704 -67.6704 -67.6617 -67.6616 -67.6616 -67.6351
   -33.9820 -33.9820 -33.9820 -33.9540 -33.9540 -33.9540 -33.9298 -33.9297
   -33.9297 -33.9260 -33.9078 -33.9078 -33.8737 -33.8737 -33.8378 -33.8378
   -33.8378 -33.8287 -33.8175 -33.8175 -33.8174 -33.7881 -33.7880 -33.7880
   -33.7344 -33.7344 -33.7344 -33.7291 -33.7291 -33.7291 -33.7226 -33.7226
   -33.7011 -33.6974 -33.6974 -33.6973 -33.6710 -33.6443 -33.6442 -33.6442
   -33.6374 -33.6373 -33.6373 -33.6178 -33.6178 -33.6178 -33.6127 -33.6127
    10.2559  12.4170  12.4170  12.4170  13.7831  13.7831  13.7831  14.7698
    14.7699  14.7699  14.9174  14.9174  14.9174  15.1301  15.1301  15.2643
    15.5721  15.9560  15.9560  16.0133  16.0133  16.0133  16.0934  16.0934
    16.2803  16.2803  16.2803  16.4304  16.4304  16.4304  16.7592  16.7592
    16.7592  16.8398  16.8399  16.8399  16.8491  16.8491  16.8491  16.9925
    16.9926  16.9926  17.1995  17.1995  17.3736  17.3736  17.3736  18.0833
    18.5159  18.5392  18.5392  18.5393  18.5590  18.5590  18.5591  18.9724
    18.9724  18.9724  19.0207  19.0207  19.0208  19.2166  19.2166  19.2166
    19.2678  19.2678  19.5239  19.5239  19.5597  19.5597  19.5677  19.5677
    19.5677  19.6432  19.6433  19.6433  19.7575  19.7575  19.7864  19.7864
    19.7864  19.8900  19.8900  19.8901  20.3257  20.3257  20.3257  21.6922
    21.6922  21.6922

          k = 0.2500 0.2500-0.5000 (  6456 PWs)   bands (ev):

   -67.7237 -67.7237 -67.6973 -67.6972 -67.6972 -67.6972 -67.6842 -67.6842
   -67.6707 -67.6707 -67.6648 -67.6648 -67.6648 -67.6647 -67.6454 -67.6454
   -33.9596 -33.9596 -33.9596 -33.9596 -33.9401 -33.9400 -33.9396 -33.9396
   -33.9221 -33.9221 -33.8939 -33.8939 -33.8939 -33.8939 -33.8696 -33.8696
   -33.8270 -33.8270 -33.8133 -33.8133 -33.8133 -33.8133 -33.7805 -33.7805
   -33.7705 -33.7705 -33.7278 -33.7278 -33.7071 -33.7071 -33.7071 -33.7071
   -33.6811 -33.6811 -33.6811 -33.6811 -33.6583 -33.6583 -33.6494 -33.6494
   -33.6478 -33.6478 -33.6204 -33.6204 -33.6204 -33.6204 -33.6169 -33.6169
    11.1244  11.1244  13.0511  13.0511  13.0511  13.0511  14.4739  14.4739
    15.0398  15.0398  15.0398  15.0399  15.2826  15.2826  15.2891  15.2891
    15.4993  15.4993  16.1095  16.1095  16.1299  16.1299  16.1636  16.1637
    16.1637  16.1637  16.2912  16.2912  16.4210  16.4210  16.5233  16.5234
    16.5234  16.5234  16.7351  16.7351  16.7351  16.7351  16.8672  16.8672
    16.8672  16.8672  17.0139  17.0139  17.0468  17.0468  17.7813  17.7813
    18.5123  18.5123  18.7355  18.7355  18.7355  18.7355  18.9494  18.9494
    18.9768  18.9768  18.9768  18.9768  19.0965  19.0965  19.2750  19.2750
    19.3877  19.3877  19.4773  19.4773  19.5579  19.5579  19.5579  19.5579
    19.5842  19.5842  19.5926  19.5926  19.7950  19.7950  19.7950  19.7950
    19.8214  19.8214  19.8214  19.8214  19.8565  19.8566  21.3341  21.3341
    22.2362  22.2362

          k = 0.2500-0.5000-0.5000 (  6472 PWs)   bands (ev):

   -67.7128 -67.7128 -67.7127 -67.7127 -67.6917 -67.6917 -67.6917 -67.6917
   -67.6669 -67.6669 -67.6668 -67.6668 -67.6528 -67.6528 -67.6528 -67.6528
   -33.9428 -33.9428 -33.9428 -33.9428 -33.9372 -33.9372 -33.9371 -33.9371
   -33.9172 -33.9172 -33.9172 -33.9172 -33.8561 -33.8561 -33.8561 -33.8561
   -33.8443 -33.8443 -33.8442 -33.8442 -33.8294 -33.8294 -33.8294 -33.8294
   -33.7327 -33.7327 -33.7327 -33.7327 -33.7100 -33.7100 -33.7099 -33.7099
   -33.6673 -33.6673 -33.6673 -33.6673 -33.6600 -33.6600 -33.6600 -33.6600
   -33.6427 -33.6427 -33.6427 -33.6427 -33.6177 -33.6177 -33.6177 -33.6176
    11.9201  11.9201  11.9201  11.9201  13.7200  13.7200  13.7200  13.7200
    15.4315  15.4315  15.4316  15.4316  15.4558  15.4558  15.4558  15.4559
    15.7754  15.7754  15.7754  15.7754  15.9692  15.9692  15.9692  15.9693
    16.2749  16.2749  16.2750  16.2750  16.3856  16.3856  16.3856  16.3856
    16.4904  16.4904  16.4904  16.4904  16.7033  16.7033  16.7034  16.7034
    16.8309  16.8310  16.8310  16.8310  17.1064  17.1064  17.1064  17.1064
    18.8992  18.8992  18.8992  18.8992  19.0967  19.0967  19.0967  19.0968
    19.1009  19.1009  19.1009  19.1009  19.1197  19.1197  19.1197  19.1197
    19.2110  19.2110  19.2110  19.2110  19.4265  19.4265  19.4265  19.4265
    19.5727  19.5727  19.5728  19.5728  19.5763  19.5763  19.5764  19.5764
    19.8778  19.8778  19.8779  19.8779  20.5029  20.5029  20.5030  20.5030
    23.2566  23.2566

          k =-0.5000-0.5000-0.5000 (  6488 PWs)   bands (ev):

   -67.7041 -67.7041 -67.7040 -67.7040 -67.7040 -67.7040 -67.7040 -67.7040
   -67.6581 -67.6581 -67.6580 -67.6580 -67.6580 -67.6580 -67.6580 -67.6580
   -33.8990 -33.8990 -33.8990 -33.8990 -33.8990 -33.8990 -33.8989 -33.8989
   -33.8989 -33.8989 -33.8989 -33.8989 -33.8989 -33.8989 -33.8989 -33.8989
   -33.8788 -33.8788 -33.8788 -33.8788 -33.8787 -33.8787 -33.8787 -33.8787
   -33.6849 -33.6849 -33.6849 -33.6849 -33.6849 -33.6849 -33.6849 -33.6849
   -33.6592 -33.6592 -33.6592 -33.6592 -33.6592 -33.6592 -33.6591 -33.6591
   -33.6591 -33.6591 -33.6591 -33.6591 -33.6591 -33.6591 -33.6591 -33.6591
    12.6800  12.6800  12.6800  12.6800  12.6800  12.6800  12.6800  12.6800
    15.8772  15.8772  15.8772  15.8772  15.8772  15.8772  15.8772  15.8772
    15.8772  15.8772  15.8772  15.8772  15.8772  15.8772  15.8772  15.8772
    16.3871  16.3871  16.3871  16.3871  16.3871  16.3871  16.3871  16.3871
    16.4760  16.4760  16.4760  16.4760  16.4760  16.4760  16.4761  16.4761
    16.4761  16.4761  16.4761  16.4761  16.4761  16.4761  16.4761  16.4761
    19.3297  19.3297  19.3297  19.3297  19.3297  19.3297  19.3297  19.3297
    19.3297  19.3297  19.3298  19.3298  19.3298  19.3298  19.3298  19.3298
    19.3802  19.3802  19.3802  19.3803  19.3803  19.3803  19.3803  19.3803
    19.3803  19.3803  19.3803  19.3803  19.3803  19.3803  19.3803  19.3803
    19.7417  19.7417  19.7417  19.7417  19.7417  19.7417  19.7417  19.7417
    25.5130  25.5130

     the Fermi energy is    17.4951 ev

!    total energy              =   -3964.21465260 Ry
     estimated scf accuracy    <       0.00000005 Ry
     smearing contrib. (-TS)   =       0.01583688 Ry
     internal energy E=F+TS    =   -3964.23048947 Ry

     The total energy is F=E-TS. E is the sum of the following terms:
     one-electron contribution =   -1826.04670941 Ry
     hartree contribution      =    1058.03543167 Ry
     xc contribution           =    -443.94812437 Ry
     ewald contribution        =   -2752.27108737 Ry

     total magnetization       =    36.73 Bohr mag/cell
     absolute magnetization    =    39.46 Bohr mag/cell

     convergence has been achieved in  18 iterations

     negative rho (up, down):  0.000E+00 4.529E-03

     Forces acting on atoms (cartesian axes, Ry/au):

     atom    1 type  1   force =     0.00000000    0.00000000    0.00000000
     atom    2 type  1   force =     0.00000000    0.00000000    0.00000000
     atom    3 type  1   force =     0.00000000    0.00000000    0.00000000
     atom    4 type  1   force =     0.00000000    0.00000000    0.00000000
     atom    5 type  1   force =     0.00000000    0.00000000    0.00000000
     atom    6 type  1   force =     0.00000000    0.00000000    0.00000000
     atom    7 type  1   force =     0.00000000    0.00000000    0.00000000
     atom    8 type  1   force =     0.00000000    0.00000000    0.00000000
     atom    9 type  1   force =    -0.00000293   -0.00000293   -0.00000293
     atom   10 type  1   force =     0.00000293   -0.00000293   -0.00000293
     atom   11 type  1   force =    -0.00000293    0.00000293   -0.00000293
     atom   12 type  1   force =     0.00000293    0.00000293   -0.00000293
     atom   13 type  1   force =    -0.00000293   -0.00000293    0.00000293
     atom   14 type  1   force =     0.00000293   -0.00000293    0.00000293
     atom   15 type  1   force =    -0.00000293    0.00000293    0.00000293
     atom   16 type  1   force =     0.00000293    0.00000293    0.00000293

     Total force =     0.000014     Total SCF correction =     0.000068
     SCF correction compared to forces is large: reduce conv_thr to get better values

     BFGS Geometry Optimization
     Energy error            =      2.1E-10 Ry
     Gradient error          =      2.9E-06 Ry/Bohr

     bfgs converged in   1 scf cycles and   0 bfgs steps
     (criteria: energy <  1.0E-04 Ry, force <  1.0E-03 Ry/Bohr)

     End of BFGS Geometry Optimization

     Final energy             =   -3964.2146525951 Ry
Begin final coordinates

ATOMIC_POSITIONS (crystal)
Fe               0.0000000000        0.0000000000        0.0000000000
Fe               0.5000000000        0.0000000000        0.0000000000
Fe               0.0000000000        0.5000000000        0.0000000000
Fe               0.5000000000        0.5000000000        0.0000000000
Fe               0.0000000000        0.0000000000        0.5000000000
Fe               0.5000000000        0.0000000000        0.5000000000
Fe               0.0000000000        0.5000000000        0.5000000000
Fe               0.5000000000        0.5000000000        0.5000000000
Fe               0.2500000000        0.2500000000        0.2500000000
Fe               0.7500000000        0.2500000000        0.2500000000
Fe               0.2500000000        0.7500000000        0.2500000000
Fe               0.7500000000        0.7500000000        0.2500000000
Fe               0.2500000000        0.2500000000        0.7500000000
Fe               0.7500000000        0.2500000000        0.7500000000
Fe               0.2500000000        0.7500000000        0.7500000000
Fe               0.7500000000        0.7500000000        0.7500000000
End final coordinates



     Writing all to output data dir ./outdir/fe16_perfect.save/ :
     XML data file, charge density, pseudopotentials, collected wavefunctions

     init_run     :      6.72s CPU      7.04s WALL (       1 calls)
     electrons    :    317.42s CPU    329.06s WALL (       1 calls)
     forces       :      2.80s CPU      2.88s WALL (       1 calls)

     Called by init_run:
     wfcinit      :      5.34s CPU      5.57s WALL (       1 calls)
     potinit      :      0.43s CPU      0.45s WALL (       1 calls)
     hinit0       :      0.62s CPU      0.63s WALL (       1 calls)

     Called by electrons:
     c_bands      :    268.22s CPU    276.67s WALL (      18 calls)
     sum_band     :     40.51s CPU     42.84s WALL (      18 calls)
     v_of_rho     :      3.27s CPU      3.35s WALL (      19 calls)
     newd         :      4.85s CPU      5.61s WALL (      19 calls)
     mix_rho      :      0.78s CPU      0.81s WALL (      18 calls)

     Called by c_bands:
     init_us_2    :      3.59s CPU      3.61s WALL (     760 calls)
     cegterg      :    254.87s CPU    263.26s WALL (     360 calls)

     Called by *egterg:
     cdiaghg      :     30.82s CPU     31.94s WALL (    1336 calls)
     h_psi        :    140.55s CPU    147.14s WALL (    1356 calls)
     s_psi        :     16.98s CPU     17.02s WALL (    1356 calls)
     g_psi        :      1.34s CPU      1.34s WALL (     976 calls)

     Called by h_psi:
     h_psi:calbec :     18.13s CPU     18.45s WALL (    1356 calls)
     vloc_psi     :    103.85s CPU    110.00s WALL (    1356 calls)
                                        0.00s GPU  (    1356 calls)
     add_vuspsi   :     17.48s CPU     17.52s WALL (    1356 calls)

     General routines
     calbec       :     27.11s CPU     27.59s WALL (    1796 calls)
     fft          :      1.43s CPU      1.54s WALL (     488 calls)
     ffts         :      0.45s CPU      0.47s WALL (     403 calls)
     fftw         :    109.56s CPU    115.95s WALL (  313366 calls)
     interpolate  :      0.36s CPU      0.36s WALL (      38 calls)

     Parallel routines

     PWSCF        :   5m27.35s CPU   5m39.77s WALL


   This run was terminated on:  15:33:37   1Jul2026            

=------------------------------------------------------------------------------=
   JOB DONE.
=------------------------------------------------------------------------------=
