
     Program PWSCF v.7.5 starts on 21Jun2026 at  1: 3:41 

     This program is part of the open-source Quantum ESPRESSO suite
     for quantum simulation of materials; please cite
         "P. Giannozzi et al., J. Phys.:Condens. Matter 21 395502 (2009);
         "P. Giannozzi et al., J. Phys.:Condens. Matter 29 465901 (2017);
         "P. Giannozzi et al., J. Chem. Phys. 152 154105 (2020);
          URL http://www.quantum-espresso.org", 
     in publications or presentations arising from this work. More details at
     http://www.quantum-espresso.org/quote

     Parallel version (MPI & OpenMP), running on       4 processor cores
     Number of MPI processes:                 4
     Threads/MPI process:                     1

     MPI processes distributed on     1 nodes
     17543 MiB available memory on the printing compute node when the environment starts

     Reading input from fe54_5mo_dispersed.scf.in

     Current dimensions of program PWSCF are:
     Max number of different atomic species (ntypx) = 10
     Max number of k-points (npk) =  40000
     Max angular momentum in pseudopotentials (lmaxx) =  4
     file Fe.pbe-spn-rrkjus_psl.1.0.0.UPF: wavefunction(s)  3P 3D renormalized
     file Mo.pbe-spn-rrkjus_psl.1.0.0.UPF: wavefunction(s)  4S renormalized

     R & G space division:  proc/nbgrp/npool/nimage =       4
     Subspace diagonalization in iterative solution of the eigenvalue problem:
     one sub-group per band group will be used
     ELPA distributed-memory algorithm (size of sub-group:  2*  2 procs)


     Parallelization info
     --------------------
     sticks:   dense  smooth     PW     G-vecs:    dense   smooth      PW
     Min        1893     944    251               123669    43650    6027
     Max        1894     945    252               123672    43653    6030
     Sum        7573    3777   1005               494679   174605   24111

     Using Slab Decomposition



     bravais-lattice index     =            1
     lattice parameter (alat)  =      16.2480  a.u.
     unit-cell volume          =    4289.4314 (a.u.)^3
     number of atoms/cell      =           54
     number of atomic types    =            2
     number of electrons       =       854.00
     number of Kohn-Sham states=          512
     kinetic-energy cutoff     =      45.0000  Ry
     charge density cutoff     =     360.0000  Ry
     scf convergence threshold =      1.0E-06
     mixing beta               =       0.2000
     number of iterations used =            8  local-TF  mixing
     Exchange-correlation= PBE
                           (   1   4   3   4   0   0   0)

     celldm(1)=  16.248000  celldm(2)=   0.000000  celldm(3)=   0.000000
     celldm(4)=   0.000000  celldm(5)=   0.000000  celldm(6)=   0.000000

     crystal axes: (cart. coord. in units of alat)
               a(1) = (   1.000000   0.000000   0.000000 )  
               a(2) = (   0.000000   1.000000   0.000000 )  
               a(3) = (   0.000000   0.000000   1.000000 )  

     reciprocal axes: (cart. coord. in units 2 pi/alat)
               b(1) = (  1.000000  0.000000  0.000000 )  
               b(2) = (  0.000000  1.000000  0.000000 )  
               b(3) = (  0.000000  0.000000  1.000000 )  


     PseudoPot. # 1 for Fe read from file:
     ../pseudo/Fe.pbe-spn-rrkjus_psl.1.0.0.UPF
     MD5 check sum: 72ea77fed8e64ab3a2ccf2804dfc1862
     Pseudo is Ultrasoft + core correction, Zval = 16.0
     Generated using &quot;atomic&quot; code by A. Dal Corso  v.6.3
     Using radial grid of 1191 points,  6 beta functions with: 
                l(1) =   0
                l(2) =   0
                l(3) =   1
                l(4) =   1
                l(5) =   2
                l(6) =   2
     Q(r) pseudized with 0 coefficients 


     PseudoPot. # 2 for Mo read from file:
     ../pseudo/Mo.pbe-spn-rrkjus_psl.1.0.0.UPF
     MD5 check sum: 03f09b12e49601d1a456a78ce8b2d514
     Pseudo is Ultrasoft + core correction, Zval = 14.0
     Generated using &quot;atomic&quot; code by A. Dal Corso  v.6.3
     Using radial grid of 1229 points,  6 beta functions with: 
                l(1) =   0
                l(2) =   0
                l(3) =   1
                l(4) =   1
                l(5) =   2
                l(6) =   2
     Q(r) pseudized with 0 coefficients 


     atomic species   valence    mass     pseudopotential
     Fe               16.00    55.84500     Fe( 1.00)
     Mo               14.00    95.95000     Mo( 1.00)

     Starting magnetic structure 
     atomic species   magnetization
     Fe              0.500
     Mo              0.000

      6 Sym. Ops. (no inversion) found ( 5 have fractional translation)



   Cartesian axes

     site n.     atom                  positions (alat units)
         1        Fe     tau(   1) = (   0.0000000   0.0000000   0.0000000  )
         2        Fe     tau(   2) = (   0.1666670   0.1666670   0.1666670  )
         3        Fe     tau(   3) = (   0.0000000   0.0000000   0.3333330  )
         4        Fe     tau(   4) = (   0.1666670   0.1666670   0.5000000  )
         5        Mo     tau(   5) = (   0.0000000   0.0000000   0.6666670  )
         6        Fe     tau(   6) = (   0.1666670   0.1666670   0.8333330  )
         7        Fe     tau(   7) = (   0.0000000   0.3333330   0.0000000  )
         8        Fe     tau(   8) = (   0.1666670   0.5000000   0.1666670  )
         9        Fe     tau(   9) = (   0.0000000   0.3333330   0.3333330  )
        10        Fe     tau(  10) = (   0.1666670   0.5000000   0.5000000  )
        11        Fe     tau(  11) = (   0.0000000   0.3333330   0.6666670  )
        12        Mo     tau(  12) = (   0.1666670   0.5000000   0.8333330  )
        13        Fe     tau(  13) = (   0.0000000   0.6666670   0.0000000  )
        14        Fe     tau(  14) = (   0.1666670   0.8333330   0.1666670  )
        15        Fe     tau(  15) = (   0.0000000   0.6666670   0.3333330  )
        16        Fe     tau(  16) = (   0.1666670   0.8333330   0.5000000  )
        17        Fe     tau(  17) = (   0.0000000   0.6666670   0.6666670  )
        18        Fe     tau(  18) = (   0.1666670   0.8333330   0.8333330  )
        19        Fe     tau(  19) = (   0.3333330   0.0000000   0.0000000  )
        20        Fe     tau(  20) = (   0.5000000   0.1666670   0.1666670  )
        21        Fe     tau(  21) = (   0.3333330   0.0000000   0.3333330  )
        22        Fe     tau(  22) = (   0.5000000   0.1666670   0.5000000  )
        23        Fe     tau(  23) = (   0.3333330   0.0000000   0.6666670  )
        24        Fe     tau(  24) = (   0.5000000   0.1666670   0.8333330  )
        25        Fe     tau(  25) = (   0.3333330   0.3333330   0.0000000  )
        26        Fe     tau(  26) = (   0.5000000   0.5000000   0.1666670  )
        27        Fe     tau(  27) = (   0.3333330   0.3333330   0.3333330  )
        28        Fe     tau(  28) = (   0.5000000   0.5000000   0.5000000  )
        29        Fe     tau(  29) = (   0.3333330   0.3333330   0.6666670  )
        30        Fe     tau(  30) = (   0.5000000   0.5000000   0.8333330  )
        31        Fe     tau(  31) = (   0.3333330   0.6666670   0.0000000  )
        32        Fe     tau(  32) = (   0.5000000   0.8333330   0.1666670  )
        33        Fe     tau(  33) = (   0.3333330   0.6666670   0.3333330  )
        34        Mo     tau(  34) = (   0.5000000   0.8333330   0.5000000  )
        35        Fe     tau(  35) = (   0.3333330   0.6666670   0.6666670  )
        36        Fe     tau(  36) = (   0.5000000   0.8333330   0.8333330  )
        37        Fe     tau(  37) = (   0.6666670   0.0000000   0.0000000  )
        38        Mo     tau(  38) = (   0.8333330   0.1666670   0.1666670  )
        39        Fe     tau(  39) = (   0.6666670   0.0000000   0.3333330  )
        40        Fe     tau(  40) = (   0.8333330   0.1666670   0.5000000  )
        41        Fe     tau(  41) = (   0.6666670   0.0000000   0.6666670  )
        42        Fe     tau(  42) = (   0.8333330   0.1666670   0.8333330  )
        43        Fe     tau(  43) = (   0.6666670   0.3333330   0.0000000  )
        44        Fe     tau(  44) = (   0.8333330   0.5000000   0.1666670  )
        45        Fe     tau(  45) = (   0.6666670   0.3333330   0.3333330  )
        46        Fe     tau(  46) = (   0.8333330   0.5000000   0.5000000  )
        47        Fe     tau(  47) = (   0.6666670   0.3333330   0.6666670  )
        48        Fe     tau(  48) = (   0.8333330   0.5000000   0.8333330  )
        49        Mo     tau(  49) = (   0.6666670   0.6666670   0.0000000  )
        50        Fe     tau(  50) = (   0.8333330   0.8333330   0.1666670  )
        51        Fe     tau(  51) = (   0.6666670   0.6666670   0.3333330  )
        52        Fe     tau(  52) = (   0.8333330   0.8333330   0.5000000  )
        53        Fe     tau(  53) = (   0.6666670   0.6666670   0.6666670  )
        54        Fe     tau(  54) = (   0.8333330   0.8333330   0.8333330  )

     number of k points=     6  Marzari-Vanderbilt smearing, width (Ry)=  0.0200
                       cart. coord. in units 2pi/alat
        k(    1) = (   0.0000000   0.0000000   0.0000000), wk =   0.0370370
        k(    2) = (   0.0000000   0.0000000   0.3333333), wk =   0.2222222
        k(    3) = (   0.0000000   0.3333333   0.3333333), wk =   0.2222222
        k(    4) = (   0.3333333   0.3333333   0.3333333), wk =   0.2222222
        k(    5) = (  -0.3333333   0.0000000   0.3333333), wk =   0.2222222
        k(    6) = (   0.3333333   0.3333333  -0.3333333), wk =   0.0740741

     Dense  grid:   494679 G-vectors     FFT dimensions: ( 108, 108, 108)

     Smooth grid:   174605 G-vectors     FFT dimensions: (  72,  72,  72)

     Estimated max dynamical RAM per process >       1.18 GB

     Estimated total dynamical RAM >       4.73 GB

     Check: negative core charge=   -0.000004
     Generating pointlists ...
     new r_m :   0.1191 (alat units)  1.9348 (a.u.) for type    1
     new r_m :   0.1191 (alat units)  1.9348 (a.u.) for type    2

     Initial potential from superposition of free atoms

     starting charge     853.9741, renormalised to     854.0000
     Starting wfcs are  540 randomized atomic wfcs

     total cpu time spent up to now is       74.1 secs

     per-process dynamical memory:   758.6 Mb

     Self-consistent Calculation

     iteration #  1     ecut=    45.00 Ry     beta= 0.20
     Davidson diagonalization with overlap
     ethr =  1.00E-02,  avg # of iterations =  3.2

     total cpu time spent up to now is      336.1 secs

     total energy              =  -12822.04795530 Ry
     estimated scf accuracy    <      36.51483203 Ry

     total magnetization       =   169.65 Bohr mag/cell
     absolute magnetization    =   173.39 Bohr mag/cell

     iteration #  2     ecut=    45.00 Ry     beta= 0.20
     Davidson diagonalization with overlap
     ethr =  4.28E-03,  avg # of iterations =  2.7

     negative rho (up, down):  0.000E+00 1.208E-02

     total cpu time spent up to now is      554.4 secs

     total energy              =  -12831.66864847 Ry
     estimated scf accuracy    <      20.59560813 Ry

     total magnetization       =   161.60 Bohr mag/cell
     absolute magnetization    =   167.00 Bohr mag/cell

     iteration #  3     ecut=    45.00 Ry     beta= 0.20
     Davidson diagonalization with overlap
     ethr =  2.41E-03,  avg # of iterations =  4.1

     negative rho (up, down):  0.000E+00 1.301E-02

     total cpu time spent up to now is      777.3 secs

     total energy              =  -12834.25265939 Ry
     estimated scf accuracy    <       9.75654229 Ry

     total magnetization       =   137.73 Bohr mag/cell
     absolute magnetization    =   152.01 Bohr mag/cell

     iteration #  4     ecut=    45.00 Ry     beta= 0.20
     Davidson diagonalization with overlap
     ethr =  1.14E-03,  avg # of iterations =  2.0

     negative rho (up, down):  0.000E+00 2.545E-02

     total cpu time spent up to now is      987.6 secs

     total energy              =  -12836.72055349 Ry
     estimated scf accuracy    <       4.98341306 Ry

     total magnetization       =   136.37 Bohr mag/cell
     absolute magnetization    =   151.08 Bohr mag/cell

     iteration #  5     ecut=    45.00 Ry     beta= 0.20
     Davidson diagonalization with overlap
     ethr =  5.84E-04,  avg # of iterations =  4.2

     negative rho (up, down):  0.000E+00 2.776E-02

     total cpu time spent up to now is     1243.7 secs

     total energy              =  -12837.57165546 Ry
     estimated scf accuracy    <       2.08581033 Ry

     total magnetization       =   115.12 Bohr mag/cell
     absolute magnetization    =   132.23 Bohr mag/cell

     iteration #  6     ecut=    45.00 Ry     beta= 0.20
     Davidson diagonalization with overlap
     ethr =  2.44E-04,  avg # of iterations =  3.8

     negative rho (up, down):  0.000E+00 2.449E-02

     total cpu time spent up to now is     1478.5 secs

     total energy              =  -12837.85602028 Ry
     estimated scf accuracy    <       0.32439103 Ry

     total magnetization       =   108.93 Bohr mag/cell
     absolute magnetization    =   127.38 Bohr mag/cell

     iteration #  7     ecut=    45.00 Ry     beta= 0.20
     Davidson diagonalization with overlap
     ethr =  3.80E-05,  avg # of iterations =  7.1

     negative rho (up, down):  0.000E+00 1.772E-02

     total cpu time spent up to now is     1716.5 secs

     total energy              =  -12837.91076415 Ry
     estimated scf accuracy    <       0.05934155 Ry

     total magnetization       =   109.94 Bohr mag/cell
     absolute magnetization    =   127.36 Bohr mag/cell

     iteration #  8     ecut=    45.00 Ry     beta= 0.20
     Davidson diagonalization with overlap
     ethr =  6.95E-06,  avg # of iterations =  8.9

     negative rho (up, down):  0.000E+00 1.434E-02

     total cpu time spent up to now is     2036.1 secs

     total energy              =  -12837.93794023 Ry
     estimated scf accuracy    <       0.02926370 Ry

     total magnetization       =   107.68 Bohr mag/cell
     absolute magnetization    =   123.77 Bohr mag/cell

     iteration #  9     ecut=    45.00 Ry     beta= 0.20
     Davidson diagonalization with overlap
     ethr =  3.43E-06,  avg # of iterations =  3.6

     negative rho (up, down):  0.000E+00 1.352E-02

     total cpu time spent up to now is     2277.6 secs

     total energy              =  -12837.94465081 Ry
     estimated scf accuracy    <       0.00272444 Ry

     total magnetization       =   107.32 Bohr mag/cell
     absolute magnetization    =   122.88 Bohr mag/cell

     iteration # 10     ecut=    45.00 Ry     beta= 0.20
     Davidson diagonalization with overlap
     ethr =  3.19E-07,  avg # of iterations =  5.8

     negative rho (up, down):  0.000E+00 1.330E-02

     total cpu time spent up to now is     2573.7 secs

     total energy              =  -12837.94698038 Ry
     estimated scf accuracy    <       0.00115489 Ry

     total magnetization       =   107.32 Bohr mag/cell
     absolute magnetization    =   122.51 Bohr mag/cell

     iteration # 11     ecut=    45.00 Ry     beta= 0.20
     Davidson diagonalization with overlap
     ethr =  1.35E-07,  avg # of iterations =  3.5

     negative rho (up, down):  0.000E+00 1.333E-02

     total cpu time spent up to now is     2831.8 secs

     total energy              =  -12837.94820929 Ry
     estimated scf accuracy    <       0.00057365 Ry

     total magnetization       =   107.35 Bohr mag/cell
     absolute magnetization    =   122.21 Bohr mag/cell

     iteration # 12     ecut=    45.00 Ry     beta= 0.20
     Davidson diagonalization with overlap
     ethr =  6.72E-08,  avg # of iterations =  2.3

     negative rho (up, down):  0.000E+00 1.327E-02

     total cpu time spent up to now is     3058.7 secs

     total energy              =  -12837.94891599 Ry
     estimated scf accuracy    <       0.00030343 Ry

     total magnetization       =   107.48 Bohr mag/cell
     absolute magnetization    =   122.29 Bohr mag/cell

     iteration # 13     ecut=    45.00 Ry     beta= 0.20
     Davidson diagonalization with overlap
     ethr =  3.55E-08,  avg # of iterations =  1.9

     negative rho (up, down):  0.000E+00 1.320E-02

     total cpu time spent up to now is     3274.9 secs

     total energy              =  -12837.94923115 Ry
     estimated scf accuracy    <       0.00029200 Ry

     total magnetization       =   107.47 Bohr mag/cell
     absolute magnetization    =   122.22 Bohr mag/cell

     iteration # 14     ecut=    45.00 Ry     beta= 0.20
     Davidson diagonalization with overlap
     ethr =  3.42E-08,  avg # of iterations =  2.8

     negative rho (up, down):  0.000E+00 1.318E-02

     total cpu time spent up to now is     3522.0 secs

     total energy              =  -12837.94952309 Ry
     estimated scf accuracy    <       0.00001539 Ry

     total magnetization       =   107.42 Bohr mag/cell
     absolute magnetization    =   122.05 Bohr mag/cell

     iteration # 15     ecut=    45.00 Ry     beta= 0.20
     Davidson diagonalization with overlap
     ethr =  1.80E-09,  avg # of iterations =  5.6

     negative rho (up, down):  0.000E+00 1.314E-02

     total cpu time spent up to now is     3866.6 secs

     total energy              =  -12837.94968545 Ry
     estimated scf accuracy    <       0.00001095 Ry

     total magnetization       =   107.43 Bohr mag/cell
     absolute magnetization    =   122.00 Bohr mag/cell

     iteration # 16     ecut=    45.00 Ry     beta= 0.20
     Davidson diagonalization with overlap
     ethr =  1.28E-09,  avg # of iterations =  2.0

     negative rho (up, down):  0.000E+00 1.311E-02

     total cpu time spent up to now is     4102.1 secs

     total energy              =  -12837.94977955 Ry
     estimated scf accuracy    <       0.00000869 Ry

     total magnetization       =   107.42 Bohr mag/cell
     absolute magnetization    =   121.98 Bohr mag/cell

     iteration # 17     ecut=    45.00 Ry     beta= 0.20
     Davidson diagonalization with overlap
     ethr =  1.02E-09,  avg # of iterations =  5.1

     negative rho (up, down):  0.000E+00 1.309E-02

     total cpu time spent up to now is     4393.3 secs

     total energy              =  -12837.94985507 Ry
     estimated scf accuracy    <       0.00000651 Ry

     total magnetization       =   107.41 Bohr mag/cell
     absolute magnetization    =   121.94 Bohr mag/cell

     iteration # 18     ecut=    45.00 Ry     beta= 0.20
     Davidson diagonalization with overlap
     ethr =  7.62E-10,  avg # of iterations =  2.0

     negative rho (up, down):  0.000E+00 1.306E-02

     total cpu time spent up to now is     4642.0 secs

     total energy              =  -12837.94989475 Ry
     estimated scf accuracy    <       0.00000390 Ry

     total magnetization       =   107.42 Bohr mag/cell
     absolute magnetization    =   121.93 Bohr mag/cell

     iteration # 19     ecut=    45.00 Ry     beta= 0.20
     Davidson diagonalization with overlap
     ethr =  4.57E-10,  avg # of iterations =  3.5

     negative rho (up, down):  0.000E+00 1.304E-02

     total cpu time spent up to now is     4920.1 secs

     total energy              =  -12837.94993302 Ry
     estimated scf accuracy    <       0.00000226 Ry

     total magnetization       =   107.43 Bohr mag/cell
     absolute magnetization    =   121.95 Bohr mag/cell

     iteration # 20     ecut=    45.00 Ry     beta= 0.20
     Davidson diagonalization with overlap
     ethr =  2.65E-10,  avg # of iterations =  2.0

     negative rho (up, down):  0.000E+00 1.303E-02

     total cpu time spent up to now is     5165.9 secs

     total energy              =  -12837.94995332 Ry
     estimated scf accuracy    <       0.00000197 Ry

     total magnetization       =   107.43 Bohr mag/cell
     absolute magnetization    =   121.95 Bohr mag/cell

     iteration # 21     ecut=    45.00 Ry     beta= 0.20
     Davidson diagonalization with overlap
     ethr =  2.31E-10,  avg # of iterations =  2.0

     negative rho (up, down):  0.000E+00 1.302E-02

     total cpu time spent up to now is     5412.9 secs

     total energy              =  -12837.94993454 Ry
     estimated scf accuracy    <       0.00000163 Ry

     total magnetization       =   107.42 Bohr mag/cell
     absolute magnetization    =   121.95 Bohr mag/cell

     iteration # 22     ecut=    45.00 Ry     beta= 0.20
     Davidson diagonalization with overlap
     ethr =  1.91E-10,  avg # of iterations =  4.8

     negative rho (up, down):  0.000E+00 1.302E-02

     Magnetic moment per site  (integrated on atomic sphere of radius R)
     atom   1 (R=0.119)  charge= 14.4717  magn=  2.2421
     atom   2 (R=0.119)  charge= 14.4317  magn=  2.4341
     atom   3 (R=0.119)  charge= 14.4724  magn=  2.2854
     atom   4 (R=0.119)  charge= 14.4581  magn=  2.4007
     atom   5 (R=0.119)  charge= 11.0472  magn= -0.5741
     atom   6 (R=0.119)  charge= 14.4695  magn=  2.3292
     atom   7 (R=0.119)  charge= 14.4997  magn=  2.2131
     atom   8 (R=0.119)  charge= 14.4317  magn=  2.4341
     atom   9 (R=0.119)  charge= 14.4614  magn=  2.3246
     atom  10 (R=0.119)  charge= 14.4317  magn=  2.4341
     atom  11 (R=0.119)  charge= 14.4724  magn=  2.2854
     atom  12 (R=0.119)  charge= 11.0443  magn= -0.5895
     atom  13 (R=0.119)  charge= 14.4717  magn=  2.2421
     atom  14 (R=0.119)  charge= 14.4194  magn=  2.4621
     atom  15 (R=0.119)  charge= 14.4226  magn=  2.3985
     atom  16 (R=0.119)  charge= 14.4695  magn=  2.3292
     atom  17 (R=0.119)  charge= 14.4717  magn=  2.2421
     atom  18 (R=0.119)  charge= 14.4697  magn=  2.3023
     atom  19 (R=0.119)  charge= 14.4226  magn=  2.3985
     atom  20 (R=0.119)  charge= 14.4317  magn=  2.4341
     atom  21 (R=0.119)  charge= 14.4614  magn=  2.3246
     atom  22 (R=0.119)  charge= 14.4317  magn=  2.4341
     atom  23 (R=0.119)  charge= 14.4724  magn=  2.2854
     atom  24 (R=0.119)  charge= 14.4194  magn=  2.4621
     atom  25 (R=0.119)  charge= 14.4614  magn=  2.3246
     atom  26 (R=0.119)  charge= 14.4581  magn=  2.4007
     atom  27 (R=0.119)  charge= 14.4250  magn=  2.4186
     atom  28 (R=0.119)  charge= 14.4317  magn=  2.4341
     atom  29 (R=0.119)  charge= 14.4614  magn=  2.3246
     atom  30 (R=0.119)  charge= 14.4695  magn=  2.3292
     atom  31 (R=0.119)  charge= 14.4724  magn=  2.2854
     atom  32 (R=0.119)  charge= 14.4695  magn=  2.3292
     atom  33 (R=0.119)  charge= 14.4614  magn=  2.3246
     atom  34 (R=0.119)  charge= 11.0443  magn= -0.5895
     atom  35 (R=0.119)  charge= 14.4997  magn=  2.2131
     atom  36 (R=0.119)  charge= 14.4697  magn=  2.3023
     atom  37 (R=0.119)  charge= 14.4717  magn=  2.2421
     atom  38 (R=0.119)  charge= 11.0443  magn= -0.5895
     atom  39 (R=0.119)  charge= 14.4997  magn=  2.2131
     atom  40 (R=0.119)  charge= 14.4695  magn=  2.3292
     atom  41 (R=0.119)  charge= 14.4717  magn=  2.2421
     atom  42 (R=0.119)  charge= 14.4697  magn=  2.3023
     atom  43 (R=0.119)  charge= 14.4724  magn=  2.2854
     atom  44 (R=0.119)  charge= 14.4695  magn=  2.3292
     atom  45 (R=0.119)  charge= 14.4614  magn=  2.3246
     atom  46 (R=0.119)  charge= 14.4194  magn=  2.4621
     atom  47 (R=0.119)  charge= 14.4226  magn=  2.3985
     atom  48 (R=0.119)  charge= 14.4697  magn=  2.3023
     atom  49 (R=0.119)  charge= 11.0472  magn= -0.5741
     atom  50 (R=0.119)  charge= 14.4697  magn=  2.3023
     atom  51 (R=0.119)  charge= 14.4724  magn=  2.2854
     atom  52 (R=0.119)  charge= 14.4697  magn=  2.3023
     atom  53 (R=0.119)  charge= 14.4717  magn=  2.2421
     atom  54 (R=0.119)  charge= 14.4963  magn=  2.2077

     total cpu time spent up to now is     5773.9 secs

     End of self-consistent calculation

 ------ SPIN UP ------------


          k = 0.0000 0.0000 0.0000 ( 21879 PWs)   bands (ev):

   -69.6498 -69.6264 -69.6264 -69.6260 -69.6228 -69.6228 -69.6223 -69.6148
   -69.6148 -69.6147 -69.6141 -69.6140 -69.6128 -69.6128 -69.6118 -69.6092
   -69.6091 -69.6090 -69.6067 -69.6041 -69.6036 -69.6033 -69.6022 -69.6011
   -69.5703 -69.5703 -69.5674 -69.5673 -69.5671 -69.5662 -69.5648 -69.5645
   -69.5628 -69.5626 -69.5624 -69.5617 -69.5605 -69.5603 -69.5589 -69.5588
   -69.5587 -69.5579 -69.5572 -69.5571 -69.5570 -69.5524 -69.5493 -69.5491
   -69.5347 -42.0610 -42.0606 -42.0590 -42.0320 -42.0308 -35.7690 -35.7690
   -35.7645 -35.7645 -35.7614 -35.7613 -35.7606 -35.7576 -35.7561 -35.7561
   -35.7505 -35.7435 -35.7428 -35.7347 -35.7347 -35.7301 -35.7205 -35.7144
   -35.7100 -35.7099 -35.7094 -35.7048 -35.7047 -35.7020 -35.7012 -35.7007
   -35.7007 -35.6995 -35.6987 -35.6986 -35.6941 -35.6940 -35.6925 -35.6925
   -35.6923 -35.6880 -35.6880 -35.6859 -35.6825 -35.6824 -35.6799 -35.6766
   -35.6764 -35.6737 -35.6700 -35.6698 -35.6669 -35.6668 -35.6649 -35.6636
   -35.6622 -35.6608 -35.6607 -35.6529 -35.6529 -35.6460 -35.6460 -35.6391
   -35.6368 -35.6366 -35.6262 -35.6218 -35.6169 -35.6169 -35.6162 -35.6161
   -35.6131 -35.6043 -35.6033 -35.6032 -35.6001 -35.6000 -35.5947 -35.5946
   -35.5924 -35.5851 -35.5813 -35.5699 -35.5699 -35.5681 -35.5681 -35.5442
   -35.5441 -35.5378 -35.5377 -35.5323 -35.5301 -35.5301 -35.5265 -35.5265
   -35.5254 -35.5252 -35.5244 -35.5174 -35.5093 -35.5085 -35.5078 -35.5077
   -35.5064 -35.5049 -35.5049 -35.5043 -35.5043 -35.5037 -35.5031 -35.5031
   -35.4984 -35.4984 -35.4960 -35.4959 -35.4940 -35.4915 -35.4911 -35.4911
   -35.4901 -35.4900 -35.4863 -35.4863 -35.4863 -35.4822 -35.4812 -35.4811
   -35.4793 -35.4765 -35.4764 -35.4752 -35.4730 -35.4728 -35.4682 -35.4652
   -35.4638 -35.4589 -35.4588 -35.4423 -35.4423 -35.4351 -35.4322 -35.4322
   -35.4267 -35.4267 -35.4247 -35.4217 -35.4139 -35.4139 -35.4098 -35.4098
   -35.3995 -16.2047 -16.2043 -16.1894 -16.1760 -16.1758 -16.1756 -16.1755
   -16.1751 -16.1750 -16.1688 -16.1589 -16.1534 -16.1533 -16.1530 -16.1529
    10.3135  12.3474  12.3477  12.3845  12.4309  12.4386  12.4388  13.2504
    13.2504  13.3307  13.3308  13.3583  13.4051  13.4367  13.4369  13.4529
    13.4531  13.4820  13.5551  13.7321  13.7322  14.0472  14.0472  14.0934
    14.0934  14.1437  14.1584  14.2268  14.2269  14.2596  14.2659  14.2659
    14.3118  14.3801  14.3802  14.4482  14.4586  14.4930  14.4931  14.6544
    14.6546  14.6998  14.7206  14.7277  14.7279  14.8667  14.8681  14.8681
    14.9331  14.9333  14.9395  14.9409  14.9587  14.9588  14.9652  14.9892
    15.0234  15.0464  15.0567  15.0612  15.0613  15.2298  15.2298  15.2468
    15.2475  15.2475  15.2733  15.2734  15.2741  15.2786  15.2919  15.2919
    15.3075  15.3076  15.3102  15.3170  15.3171  15.4598  15.4906  15.4906
    15.5049  15.5049  15.5146  15.5147  15.5166  15.5238  15.5281  15.5282
    15.5405  15.5414  15.5440  15.5440  15.5496  15.5496  15.5595  15.5595
    15.5630  15.5665  15.5762  15.5762  15.5992  15.5993  15.6029  15.6053
    15.6053  15.8202  15.8203  15.8312  15.8378  15.8379  15.8383  15.8417
    15.8419  15.8471  15.8651  15.8712  15.8714  15.8789  15.9076  15.9076
    15.9077  15.9151  15.9151  15.9203  15.9275  15.9275  15.9352  15.9352
    15.9490  16.3726  16.3760  16.3760  16.4154  16.4166  16.4167  16.4249
    16.4250  16.4253  16.4406  16.4407  16.4489  16.4630  16.4670  16.4671
    16.5478  16.5479  16.5589  16.5768  16.5887  16.5888  16.6033  16.7303
    16.7328  16.7328  16.7430  16.7431  16.7569  16.7719  16.7721  16.7824
    16.8030  16.8031  16.8811  16.8813  16.8819  16.9216  16.9344  16.9346
    17.1666  17.1666  17.1702  17.1761  17.1761  17.1847  17.1996  17.2117
    17.2117  17.2419  17.3151  17.3152  17.3381  17.3514  17.3514  17.3547
    17.3633  17.3634  17.4393  17.4436  17.4436  17.4930  17.5005  17.5005
    17.5132  17.5132  17.5210  17.5234  17.5337  17.5338  17.5398  17.5419
    17.5420  17.5435  17.5478  17.5478  17.5618  17.5618  17.5826  17.5827
    17.5943  17.5950  17.5950  17.5986  17.6004  17.6070  17.6071  17.6124
    17.6147  17.6147  17.6224  17.6228  17.6228  17.6234  17.6235  17.6383
    17.6955  17.6955  17.7248  17.7248  17.7284  17.7441  17.7441  17.7698
    17.7825  17.7825  17.7988  17.7989  17.7989  17.8098  17.8420  17.8420
    17.8715  17.8859  17.8924  17.8925  17.9722  17.9723  18.0399  18.0883
    18.0884  18.0979  18.1096  18.2510  18.2510  18.2951  18.3009  18.3009
    18.3050  18.3228  18.3228  18.3564  18.3564  18.6670  18.7290  18.7290
    18.8466  18.8466  18.8784  18.8784  19.0330  19.0331  19.0874  19.2440
    19.2441  19.2925  19.3512  19.3761  19.4180  19.5580  19.5580  19.5998
    19.7091  19.7091  19.9674  19.9675  20.0693  20.0693  20.3665  20.3665
    20.3931  20.5515  21.1810  21.1811  21.2624  21.3697  21.4438  21.4439

          k = 0.0000 0.0000 0.3333 ( 21891 PWs)   bands (ev):

   -69.6467 -69.6375 -69.6250 -69.6246 -69.6219 -69.6216 -69.6195 -69.6185
   -69.6175 -69.6161 -69.6141 -69.6122 -69.6119 -69.6112 -69.6102 -69.6100
   -69.6093 -69.6083 -69.6070 -69.6036 -69.6028 -69.6024 -69.6012 -69.6002
   -69.5710 -69.5703 -69.5698 -69.5678 -69.5672 -69.5662 -69.5651 -69.5648
   -69.5639 -69.5624 -69.5621 -69.5618 -69.5609 -69.5603 -69.5596 -69.5593
   -69.5581 -69.5579 -69.5573 -69.5570 -69.5556 -69.5521 -69.5501 -69.5434
   -69.5366 -42.0614 -42.0600 -42.0592 -42.0321 -42.0308 -35.7679 -35.7663
   -35.7653 -35.7623 -35.7533 -35.7502 -35.7496 -35.7481 -35.7463 -35.7460
   -35.7434 -35.7391 -35.7389 -35.7364 -35.7324 -35.7305 -35.7285 -35.7275
   -35.7264 -35.7228 -35.7201 -35.7180 -35.7167 -35.7161 -35.7139 -35.7118
   -35.7104 -35.7090 -35.7082 -35.7056 -35.7033 -35.7025 -35.6998 -35.6967
   -35.6950 -35.6907 -35.6873 -35.6844 -35.6831 -35.6830 -35.6766 -35.6751
   -35.6677 -35.6660 -35.6655 -35.6591 -35.6552 -35.6469 -35.6451 -35.6442
   -35.6429 -35.6405 -35.6390 -35.6341 -35.6327 -35.6321 -35.6291 -35.6279
   -35.6253 -35.6239 -35.6222 -35.6195 -35.6151 -35.6144 -35.6115 -35.6105
   -35.6094 -35.6052 -35.6020 -35.5997 -35.5977 -35.5942 -35.5909 -35.5886
   -35.5861 -35.5822 -35.5808 -35.5786 -35.5756 -35.5723 -35.5661 -35.5598
   -35.5569 -35.5546 -35.5508 -35.5484 -35.5464 -35.5453 -35.5433 -35.5406
   -35.5393 -35.5364 -35.5343 -35.5321 -35.5301 -35.5284 -35.5280 -35.5236
   -35.5206 -35.5198 -35.5177 -35.5149 -35.5124 -35.5088 -35.5064 -35.5048
   -35.5036 -35.5002 -35.4941 -35.4927 -35.4899 -35.4867 -35.4854 -35.4845
   -35.4816 -35.4792 -35.4771 -35.4752 -35.4751 -35.4721 -35.4712 -35.4688
   -35.4675 -35.4663 -35.4637 -35.4614 -35.4585 -35.4574 -35.4560 -35.4534
   -35.4524 -35.4495 -35.4490 -35.4464 -35.4447 -35.4420 -35.4406 -35.4373
   -35.4352 -35.4338 -35.4331 -35.4308 -35.4282 -35.4245 -35.4223 -35.4221
   -35.4132 -16.2089 -16.1977 -16.1917 -16.1761 -16.1757 -16.1756 -16.1754
   -16.1751 -16.1750 -16.1687 -16.1589 -16.1534 -16.1533 -16.1529 -16.1528
    10.5651  11.3032  12.5241  12.5474  12.5840  12.6116  12.9366  12.9570
    13.0072  13.0376  13.4829  13.5513  13.5669  13.6070  13.6134  13.6373
    13.6722  13.6843  13.7384  13.8361  13.8558  13.8798  13.8973  13.9517
    13.9837  14.1693  14.1833  14.1981  14.2340  14.2659  14.2935  14.3029
    14.3325  14.3497  14.3609  14.3910  14.4047  14.4305  14.4628  14.4669
    14.4954  14.5214  14.5548  14.5708  14.6879  14.7130  14.7485  14.7798
    14.7939  14.7990  14.8081  14.8265  14.8370  14.8413  14.8666  14.8816
    14.9012  14.9262  14.9393  14.9621  15.2068  15.2087  15.2197  15.2268
    15.2284  15.2468  15.2577  15.2744  15.2912  15.3355  15.3474  15.3512
    15.3701  15.3734  15.3928  15.3978  15.4117  15.4217  15.4267  15.4334
    15.4389  15.4472  15.4500  15.4531  15.4568  15.4652  15.4723  15.4822
    15.4915  15.5615  15.5668  15.5686  15.5731  15.6898  15.7061  15.7212
    15.7270  15.7302  15.7329  15.7346  15.7383  15.7408  15.7456  15.7494
    15.7503  15.7530  15.7579  15.7603  15.7623  15.7659  15.7726  15.7800
    15.8014  15.8133  15.8227  15.8347  15.8393  15.8876  15.9043  15.9160
    15.9270  15.9617  16.1082  16.1096  16.1146  16.1187  16.1625  16.1692
    16.1776  16.1849  16.2017  16.2397  16.2481  16.2603  16.3131  16.3160
    16.3205  16.3283  16.3414  16.3439  16.3569  16.3593  16.3872  16.4073
    16.4183  16.4296  16.4673  16.4769  16.4911  16.5125  16.5448  16.6041
    16.6064  16.6130  16.8479  16.8838  16.8958  16.9027  16.9134  16.9208
    16.9262  16.9349  16.9411  16.9420  16.9911  17.0092  17.0167  17.0362
    17.1194  17.1386  17.1523  17.1642  17.1836  17.2061  17.2122  17.2195
    17.2235  17.2620  17.2719  17.2801  17.2895  17.3036  17.3105  17.3358
    17.3463  17.3604  17.3773  17.3847  17.4163  17.4235  17.4335  17.4454
    17.4618  17.4676  17.4730  17.4775  17.4850  17.4896  17.5075  17.5189
    17.5334  17.5377  17.5413  17.5556  17.5759  17.5807  17.5906  17.5925
    17.5952  17.5964  17.5994  17.6014  17.6077  17.6146  17.6265  17.6316
    17.6380  17.6462  17.6490  17.6553  17.6614  17.6691  17.6790  17.6943
    17.6978  17.7076  17.7119  17.7182  17.7240  17.7484  17.7592  17.7762
    17.7804  17.7927  17.7995  17.8117  17.8484  17.8686  17.9340  17.9604
    18.0394  18.1045  18.1228  18.1627  18.2048  18.2317  18.2379  18.2686
    18.2801  18.3052  18.3519  18.3769  18.4143  18.4320  18.4426  18.4574
    18.4594  18.4627  18.4920  18.5231  18.5290  18.5936  18.6142  18.6540
    18.6882  18.7343  18.7542  18.8358  18.9514  19.0136  19.0499  19.0901
    19.1751  19.2206  19.2734  19.3558  19.4279  19.5017  19.5766  19.5906
    19.6363  19.7777  19.8543  19.9046  19.9969  20.0632  20.2011  20.2904
    20.3120  20.3494  20.4348  20.4675  20.5436  20.5861  20.7087  20.8221

          k = 0.0000 0.3333 0.3333 ( 21886 PWs)   bands (ev):

   -69.6437 -69.6354 -69.6344 -69.6279 -69.6230 -69.6208 -69.6189 -69.6176
   -69.6154 -69.6149 -69.6141 -69.6134 -69.6112 -69.6111 -69.6107 -69.6089
   -69.6079 -69.6078 -69.6059 -69.6027 -69.6025 -69.6019 -69.6005 -69.5998
   -69.5714 -69.5710 -69.5708 -69.5689 -69.5679 -69.5671 -69.5650 -69.5650
   -69.5643 -69.5635 -69.5630 -69.5620 -69.5614 -69.5612 -69.5596 -69.5591
   -69.5583 -69.5578 -69.5570 -69.5554 -69.5548 -69.5511 -69.5460 -69.5440
   -69.5383 -42.0610 -42.0606 -42.0589 -42.0320 -42.0308 -35.7794 -35.7745
   -35.7613 -35.7587 -35.7560 -35.7550 -35.7500 -35.7457 -35.7453 -35.7415
   -35.7396 -35.7380 -35.7361 -35.7342 -35.7323 -35.7307 -35.7294 -35.7294
   -35.7281 -35.7265 -35.7258 -35.7239 -35.7228 -35.7203 -35.7179 -35.7165
   -35.7116 -35.7097 -35.7087 -35.7038 -35.7036 -35.7014 -35.6976 -35.6971
   -35.6938 -35.6931 -35.6870 -35.6843 -35.6816 -35.6747 -35.6733 -35.6714
   -35.6635 -35.6611 -35.6604 -35.6569 -35.6536 -35.6526 -35.6498 -35.6475
   -35.6445 -35.6420 -35.6417 -35.6375 -35.6345 -35.6337 -35.6329 -35.6302
   -35.6284 -35.6253 -35.6235 -35.6234 -35.6201 -35.6178 -35.6146 -35.6077
   -35.6053 -35.6042 -35.6021 -35.5975 -35.5943 -35.5940 -35.5855 -35.5844
   -35.5791 -35.5786 -35.5768 -35.5738 -35.5683 -35.5669 -35.5628 -35.5620
   -35.5577 -35.5542 -35.5526 -35.5516 -35.5483 -35.5466 -35.5440 -35.5414
   -35.5385 -35.5381 -35.5334 -35.5307 -35.5293 -35.5288 -35.5259 -35.5247
   -35.5200 -35.5190 -35.5179 -35.5178 -35.5157 -35.5131 -35.5089 -35.5049
   -35.5045 -35.5022 -35.4997 -35.4969 -35.4941 -35.4923 -35.4882 -35.4874
   -35.4848 -35.4842 -35.4827 -35.4787 -35.4727 -35.4724 -35.4677 -35.4656
   -35.4640 -35.4625 -35.4593 -35.4561 -35.4546 -35.4535 -35.4518 -35.4497
   -35.4482 -35.4447 -35.4447 -35.4422 -35.4420 -35.4400 -35.4386 -35.4371
   -35.4343 -35.4331 -35.4322 -35.4319 -35.4291 -35.4254 -35.4251 -35.4218
   -35.4059 -16.2047 -16.2043 -16.1893 -16.1760 -16.1759 -16.1756 -16.1754
   -16.1752 -16.1750 -16.1687 -16.1589 -16.1533 -16.1533 -16.1529 -16.1528
    10.8172  11.5245  11.5312  12.1512  12.7411  12.7570  13.1433  13.1867
    13.2083  13.2087  13.5864  13.6066  13.6149  13.6428  13.6647  13.6905
    13.7634  13.7807  13.8232  13.8542  13.8572  13.9397  13.9472  13.9760
    14.0834  14.0896  14.0988  14.1504  14.1560  14.1775  14.2789  14.2815
    14.3291  14.3421  14.3621  14.3656  14.3962  14.4107  14.4321  14.4641
    14.5051  14.5083  14.5285  14.5513  14.5740  14.5985  14.6011  14.6214
    14.6592  14.6717  14.6851  14.7478  14.7942  14.7945  14.8630  14.8688
    14.9305  14.9744  15.0616  15.0622  15.0649  15.0748  15.1747  15.1805
    15.1999  15.2003  15.2117  15.2167  15.2428  15.2621  15.2712  15.2916
    15.3039  15.3049  15.3193  15.3220  15.3258  15.3312  15.3325  15.3429
    15.3531  15.3566  15.3879  15.3935  15.3965  15.4076  15.4845  15.4897
    15.4932  15.4939  15.5240  15.5356  15.6236  15.6322  15.6703  15.6705
    15.6872  15.6994  15.7197  15.7246  15.7487  15.7621  15.7831  15.7941
    15.8428  15.8454  15.8792  15.9205  15.9292  15.9555  15.9776  15.9842
    15.9996  16.0034  16.0080  16.0173  16.0175  16.0350  16.0393  16.0577
    16.0585  16.0684  16.0705  16.0787  16.1034  16.1096  16.1144  16.1261
    16.1265  16.1303  16.1546  16.1580  16.1628  16.1722  16.1742  16.1848
    16.1868  16.1930  16.2353  16.2554  16.2667  16.2680  16.2824  16.3390
    16.4242  16.4258  16.4361  16.4585  16.5399  16.5493  16.5907  16.6334
    16.6351  16.6819  16.7069  16.7097  16.7583  16.8717  16.8782  16.8941
    16.9133  16.9700  17.0054  17.0158  17.0388  17.0497  17.1879  17.1959
    17.2026  17.2342  17.2448  17.2500  17.2713  17.2980  17.2981  17.3040
    17.3284  17.3513  17.3620  17.3750  17.3819  17.3872  17.3907  17.4083
    17.4088  17.4212  17.4321  17.4427  17.4556  17.4567  17.4680  17.4766
    17.4866  17.4903  17.4990  17.5052  17.5189  17.5247  17.5325  17.5363
    17.5444  17.5599  17.5641  17.5696  17.5735  17.5837  17.5886  17.6011
    17.6028  17.6074  17.6272  17.6315  17.6447  17.6509  17.6603  17.6634
    17.6694  17.6710  17.6734  17.6936  17.6992  17.7027  17.7151  17.7202
    17.7266  17.7278  17.7610  17.7678  17.7707  17.7793  17.8156  17.8222
    17.8424  17.8444  17.8629  17.8699  17.8793  17.9045  17.9239  17.9709
    18.0348  18.0561  18.0646  18.0828  18.1068  18.1161  18.1903  18.1991
    18.2345  18.2368  18.2582  18.2893  18.3112  18.3189  18.3463  18.3702
    18.4178  18.4688  18.5229  18.5476  18.6400  18.6424  18.7080  18.7135
    18.7214  18.7452  18.8071  18.8354  18.9767  19.0061  19.0766  19.1473
    19.2277  19.2590  19.3448  19.3587  19.4178  19.5023  19.5279  19.5798
    19.6515  19.6981  19.7429  19.9115  19.9933  20.0020  20.1697  20.2130
    20.2680  20.2874  20.4198  20.4545  20.4798  20.5097  20.7234  20.8310

          k = 0.3333 0.3333 0.3333 ( 21842 PWs)   bands (ev):

   -69.6407 -69.6341 -69.6326 -69.6309 -69.6268 -69.6251 -69.6246 -69.6204
   -69.6128 -69.6123 -69.6120 -69.6108 -69.6106 -69.6105 -69.6085 -69.6084
   -69.6073 -69.6071 -69.6062 -69.6022 -69.6019 -69.6015 -69.6002 -69.5992
   -69.5722 -69.5717 -69.5706 -69.5702 -69.5683 -69.5679 -69.5663 -69.5659
   -69.5646 -69.5642 -69.5633 -69.5630 -69.5626 -69.5603 -69.5600 -69.5592
   -69.5587 -69.5563 -69.5553 -69.5534 -69.5528 -69.5503 -69.5455 -69.5439
   -69.5400 -42.0613 -42.0599 -42.0592 -42.0320 -42.0307 -35.7737 -35.7727
   -35.7710 -35.7656 -35.7652 -35.7632 -35.7487 -35.7479 -35.7470 -35.7421
   -35.7416 -35.7403 -35.7374 -35.7346 -35.7341 -35.7287 -35.7273 -35.7265
   -35.7239 -35.7236 -35.7225 -35.7192 -35.7162 -35.7154 -35.7127 -35.7075
   -35.7055 -35.7053 -35.7033 -35.7024 -35.6995 -35.6982 -35.6972 -35.6962
   -35.6949 -35.6922 -35.6903 -35.6871 -35.6809 -35.6807 -35.6769 -35.6743
   -35.6716 -35.6698 -35.6672 -35.6664 -35.6608 -35.6587 -35.6560 -35.6532
   -35.6516 -35.6489 -35.6441 -35.6326 -35.6306 -35.6272 -35.6252 -35.6222
   -35.6203 -35.6172 -35.6151 -35.6125 -35.6079 -35.6073 -35.6043 -35.6023
   -35.6003 -35.5991 -35.5972 -35.5959 -35.5923 -35.5875 -35.5869 -35.5851
   -35.5829 -35.5806 -35.5733 -35.5723 -35.5687 -35.5656 -35.5651 -35.5620
   -35.5606 -35.5579 -35.5543 -35.5535 -35.5513 -35.5489 -35.5459 -35.5427
   -35.5399 -35.5394 -35.5345 -35.5321 -35.5309 -35.5308 -35.5282 -35.5264
   -35.5248 -35.5229 -35.5209 -35.5206 -35.5184 -35.5163 -35.5134 -35.5124
   -35.5116 -35.5071 -35.5065 -35.4993 -35.4889 -35.4862 -35.4854 -35.4766
   -35.4758 -35.4734 -35.4718 -35.4706 -35.4685 -35.4663 -35.4633 -35.4614
   -35.4597 -35.4575 -35.4553 -35.4539 -35.4536 -35.4524 -35.4510 -35.4488
   -35.4462 -35.4461 -35.4438 -35.4432 -35.4426 -35.4405 -35.4393 -35.4384
   -35.4363 -35.4347 -35.4344 -35.4334 -35.4286 -35.4273 -35.4243 -35.4236
   -35.4138 -16.2089 -16.1977 -16.1917 -16.1760 -16.1758 -16.1756 -16.1754
   -16.1753 -16.1750 -16.1689 -16.1589 -16.1533 -16.1533 -16.1529 -16.1527
    11.0632  11.7404  11.7548  11.7714  12.3409  12.3735  12.4084  12.9709
    13.6744  13.6865  13.7218  13.7506  13.7559  13.7703  13.7815  13.8255
    13.8329  13.8563  13.8692  13.9338  13.9602  13.9957  14.0453  14.0698
    14.1212  14.1827  14.1952  14.2458  14.2632  14.2805  14.2947  14.2980
    14.3362  14.3446  14.3583  14.3744  14.3938  14.4159  14.4202  14.4277
    14.4361  14.4603  14.4804  14.4879  14.5009  14.5030  14.5224  14.5436
    14.5443  14.5574  14.5789  14.5818  14.7001  14.7172  14.7735  14.8038
    14.8103  14.8149  14.9225  14.9277  15.1084  15.1645  15.1797  15.1876
    15.1936  15.2099  15.2240  15.2288  15.2307  15.2373  15.2476  15.2504
    15.2577  15.2658  15.2740  15.2922  15.2928  15.2942  15.2997  15.3237
    15.3451  15.3807  15.3849  15.3936  15.4423  15.4583  15.4586  15.4699
    15.4858  15.4977  15.5611  15.5623  15.5768  15.5884  15.5919  15.6028
    15.6135  15.6223  15.6530  15.6668  15.6835  15.6942  15.6976  15.7055
    15.8121  15.8145  15.8188  15.8943  15.8969  15.9119  15.9206  15.9682
    15.9786  15.9794  15.9943  16.0090  16.0196  16.0322  16.0444  16.0501
    16.0521  16.0540  16.0580  16.0645  16.0684  16.0744  16.0803  16.0890
    16.0906  16.0952  16.1064  16.1085  16.1121  16.1189  16.1268  16.1780
    16.1817  16.2221  16.2242  16.2301  16.3954  16.4006  16.4069  16.4872
    16.5056  16.5119  16.6102  16.6368  16.6773  16.6883  16.7007  16.7472
    16.8203  16.9146  16.9286  16.9363  17.0499  17.0550  17.0704  17.0725
    17.0832  17.0986  17.1037  17.1123  17.1336  17.1606  17.1701  17.1739
    17.2145  17.2272  17.2277  17.2479  17.2516  17.2568  17.2652  17.2721
    17.2925  17.3007  17.3252  17.3345  17.3571  17.3604  17.3705  17.3742
    17.3810  17.3896  17.4000  17.4097  17.4154  17.4406  17.4509  17.4738
    17.4797  17.4811  17.4903  17.5015  17.5154  17.5318  17.5355  17.5397
    17.5541  17.5605  17.5645  17.5667  17.5741  17.5780  17.5834  17.5923
    17.6088  17.6189  17.6213  17.6301  17.6357  17.6453  17.6474  17.6541
    17.6682  17.6721  17.6986  17.7099  17.7191  17.7372  17.7465  17.7564
    17.7688  17.7699  17.7884  17.7949  17.8255  17.8297  17.8433  17.8558
    17.8681  17.8847  17.8928  17.9018  17.9202  17.9220  17.9664  17.9881
    17.9991  18.0274  18.0285  18.0769  18.0936  18.1074  18.1169  18.1507
    18.1529  18.1758  18.2093  18.2242  18.2877  18.3165  18.3492  18.3857
    18.4186  18.4385  18.5333  18.5586  18.5698  18.6101  18.6216  18.6410
    18.6989  18.7201  18.7876  18.8195  18.9415  19.0181  19.0343  19.1786
    19.2288  19.3089  19.3435  19.4442  19.5143  19.5230  19.5547  19.6214
    19.7469  19.8191  19.8539  19.9487  20.0163  20.0349  20.2584  20.3023
    20.3408  20.4287  20.4719  20.5233  20.6124  20.6902  20.7570  20.8629

          k =-0.3333 0.0000 0.3333 ( 21886 PWs)   bands (ev):

   -69.6435 -69.6367 -69.6332 -69.6280 -69.6229 -69.6211 -69.6181 -69.6172
   -69.6166 -69.6153 -69.6138 -69.6123 -69.6118 -69.6114 -69.6104 -69.6090
   -69.6083 -69.6071 -69.6066 -69.6030 -69.6021 -69.6017 -69.6006 -69.5997
   -69.5718 -69.5707 -69.5703 -69.5690 -69.5679 -69.5672 -69.5653 -69.5650
   -69.5643 -69.5634 -69.5633 -69.5620 -69.5613 -69.5610 -69.5596 -69.5593
   -69.5582 -69.5578 -69.5568 -69.5558 -69.5546 -69.5502 -69.5478 -69.5427
   -69.5386 -42.0614 -42.0600 -42.0592 -42.0321 -42.0308 -35.7783 -35.7746
   -35.7599 -35.7589 -35.7535 -35.7520 -35.7489 -35.7479 -35.7444 -35.7422
   -35.7397 -35.7373 -35.7360 -35.7356 -35.7339 -35.7334 -35.7322 -35.7312
   -35.7289 -35.7267 -35.7247 -35.7237 -35.7227 -35.7219 -35.7187 -35.7176
   -35.7128 -35.7106 -35.7072 -35.7044 -35.7030 -35.6995 -35.6977 -35.6968
   -35.6949 -35.6940 -35.6907 -35.6877 -35.6793 -35.6733 -35.6699 -35.6695
   -35.6641 -35.6635 -35.6611 -35.6596 -35.6507 -35.6491 -35.6477 -35.6463
   -35.6437 -35.6424 -35.6396 -35.6368 -35.6355 -35.6334 -35.6327 -35.6298
   -35.6280 -35.6235 -35.6210 -35.6194 -35.6155 -35.6136 -35.6117 -35.6087
   -35.6076 -35.6053 -35.6044 -35.6007 -35.5948 -35.5891 -35.5857 -35.5843
   -35.5838 -35.5806 -35.5785 -35.5747 -35.5744 -35.5708 -35.5621 -35.5618
   -35.5599 -35.5570 -35.5556 -35.5534 -35.5499 -35.5478 -35.5425 -35.5395
   -35.5388 -35.5357 -35.5340 -35.5327 -35.5297 -35.5259 -35.5254 -35.5235
   -35.5220 -35.5204 -35.5192 -35.5167 -35.5152 -35.5118 -35.5067 -35.5051
   -35.5026 -35.5015 -35.5009 -35.4955 -35.4949 -35.4924 -35.4900 -35.4879
   -35.4858 -35.4825 -35.4804 -35.4778 -35.4740 -35.4704 -35.4648 -35.4627
   -35.4624 -35.4616 -35.4571 -35.4546 -35.4540 -35.4528 -35.4526 -35.4486
   -35.4480 -35.4473 -35.4458 -35.4434 -35.4427 -35.4418 -35.4402 -35.4396
   -35.4381 -35.4340 -35.4331 -35.4313 -35.4243 -35.4229 -35.4213 -35.4183
   -35.4152 -16.2090 -16.1977 -16.1916 -16.1762 -16.1758 -16.1756 -16.1754
   -16.1752 -16.1750 -16.1687 -16.1589 -16.1534 -16.1533 -16.1529 -16.1527
    10.8171  11.5217  11.5350  12.1518  12.7433  12.7582  13.1319  13.1657
    13.2108  13.2404  13.5880  13.5900  13.6268  13.6407  13.6575  13.7004
    13.7177  13.7286  13.7934  13.8686  13.9530  13.9640  14.0088  14.0128
    14.0389  14.0806  14.1149  14.1276  14.1841  14.2232  14.2461  14.2611
    14.2904  14.3115  14.3316  14.3639  14.3781  14.4081  14.4315  14.4406
    14.4741  14.5055  14.5573  14.5707  14.5905  14.6016  14.6129  14.6221
    14.6558  14.6778  14.6937  14.7490  14.7998  14.8019  14.8725  14.8764
    14.9318  14.9787  15.0408  15.0694  15.0733  15.0864  15.1681  15.1721
    15.1756  15.1939  15.2031  15.2214  15.2632  15.2650  15.2811  15.2834
    15.2924  15.3085  15.3132  15.3202  15.3229  15.3311  15.3384  15.3428
    15.3559  15.3608  15.3805  15.3937  15.4007  15.4034  15.4839  15.4865
    15.4921  15.4948  15.5279  15.5400  15.6227  15.6408  15.6683  15.6792
    15.6864  15.6909  15.7170  15.7300  15.7457  15.7701  15.7790  15.8042
    15.8266  15.8469  15.8781  15.9229  15.9417  15.9529  15.9594  15.9759
    15.9939  15.9998  16.0038  16.0047  16.0133  16.0243  16.0296  16.0596
    16.0705  16.0824  16.0874  16.0963  16.1004  16.1015  16.1116  16.1165
    16.1282  16.1343  16.1384  16.1487  16.1517  16.1749  16.1852  16.1907
    16.2179  16.2225  16.2375  16.2510  16.2729  16.2877  16.3003  16.3330
    16.3970  16.4177  16.4271  16.4389  16.5371  16.5515  16.5907  16.6185
    16.6356  16.6911  16.7085  16.7305  16.7561  16.8422  16.8558  16.9179
    16.9350  16.9838  17.0150  17.0266  17.0284  17.0473  17.1626  17.1856
    17.2092  17.2415  17.2449  17.2618  17.2779  17.2878  17.2953  17.3062
    17.3081  17.3306  17.3484  17.3861  17.3893  17.3928  17.4052  17.4153
    17.4189  17.4210  17.4408  17.4457  17.4509  17.4577  17.4664  17.4684
    17.4813  17.4886  17.4978  17.5049  17.5100  17.5213  17.5239  17.5271
    17.5391  17.5443  17.5605  17.5659  17.5693  17.5743  17.5798  17.5819
    17.5894  17.6003  17.6156  17.6177  17.6268  17.6334  17.6531  17.6608
    17.6739  17.6790  17.6874  17.6932  17.7022  17.7057  17.7144  17.7207
    17.7466  17.7592  17.7694  17.7758  17.8002  17.8066  17.8171  17.8443
    17.8516  17.8548  17.8797  17.9053  17.9583  17.9908  18.0366  18.0502
    18.0619  18.0659  18.0842  18.0894  18.1252  18.1538  18.1703  18.1840
    18.2056  18.2235  18.2289  18.2417  18.2758  18.3071  18.3270  18.3398
    18.3714  18.4086  18.5007  18.5138  18.5413  18.6300  18.6905  18.7075
    18.7333  18.7572  18.7690  18.8374  18.8483  18.9606  19.0573  19.1062
    19.1702  19.2059  19.2379  19.3298  19.4297  19.4501  19.6187  19.6344
    19.7351  19.7699  19.8233  19.9475  19.9848  20.1150  20.1310  20.1737
    20.2182  20.3371  20.4268  20.5288  20.5957  20.6743  20.7734  20.9110

          k = 0.3333 0.3333-0.3333 ( 21842 PWs)   bands (ev):

   -69.6404 -69.6352 -69.6322 -69.6305 -69.6269 -69.6258 -69.6241 -69.6198
   -69.6127 -69.6122 -69.6121 -69.6112 -69.6112 -69.6095 -69.6091 -69.6085
   -69.6073 -69.6071 -69.6066 -69.6021 -69.6017 -69.6014 -69.6002 -69.5992
   -69.5724 -69.5716 -69.5704 -69.5701 -69.5685 -69.5676 -69.5663 -69.5662
   -69.5651 -69.5639 -69.5634 -69.5633 -69.5627 -69.5600 -69.5597 -69.5593
   -69.5589 -69.5555 -69.5554 -69.5544 -69.5527 -69.5491 -69.5470 -69.5427
   -69.5405 -42.0609 -42.0605 -42.0589 -42.0320 -42.0308 -35.7761 -35.7721
   -35.7697 -35.7674 -35.7660 -35.7619 -35.7515 -35.7499 -35.7461 -35.7419
   -35.7391 -35.7360 -35.7338 -35.7316 -35.7302 -35.7299 -35.7285 -35.7275
   -35.7269 -35.7227 -35.7212 -35.7211 -35.7198 -35.7155 -35.7150 -35.7123
   -35.7114 -35.7053 -35.7004 -35.6998 -35.6998 -35.6977 -35.6943 -35.6940
   -35.6912 -35.6899 -35.6894 -35.6840 -35.6836 -35.6784 -35.6759 -35.6715
   -35.6690 -35.6668 -35.6665 -35.6656 -35.6641 -35.6623 -35.6605 -35.6572
   -35.6568 -35.6535 -35.6429 -35.6398 -35.6347 -35.6289 -35.6237 -35.6231
   -35.6209 -35.6179 -35.6087 -35.6075 -35.6067 -35.6064 -35.6041 -35.5994
   -35.5993 -35.5973 -35.5943 -35.5938 -35.5889 -35.5875 -35.5867 -35.5859
   -35.5822 -35.5791 -35.5741 -35.5733 -35.5730 -35.5687 -35.5672 -35.5657
   -35.5649 -35.5619 -35.5603 -35.5525 -35.5460 -35.5454 -35.5447 -35.5443
   -35.5399 -35.5390 -35.5316 -35.5313 -35.5304 -35.5277 -35.5269 -35.5230
   -35.5224 -35.5205 -35.5165 -35.5155 -35.5152 -35.5143 -35.5139 -35.5138
   -35.5123 -35.5087 -35.5061 -35.5017 -35.5003 -35.4947 -35.4942 -35.4766
   -35.4756 -35.4740 -35.4728 -35.4709 -35.4668 -35.4665 -35.4587 -35.4585
   -35.4575 -35.4552 -35.4545 -35.4536 -35.4529 -35.4513 -35.4489 -35.4480
   -35.4474 -35.4472 -35.4470 -35.4455 -35.4438 -35.4425 -35.4388 -35.4349
   -35.4346 -35.4341 -35.4329 -35.4324 -35.4312 -35.4290 -35.4242 -35.4224
   -35.4151 -16.2047 -16.2043 -16.1893 -16.1761 -16.1758 -16.1756 -16.1754
   -16.1752 -16.1750 -16.1687 -16.1589 -16.1533 -16.1533 -16.1530 -16.1526
    11.0632  11.7310  11.7606  11.7753  12.3206  12.3850  12.4172  12.9749
    13.6820  13.7049  13.7068  13.7297  13.7358  13.7683  13.7755  13.8008
    13.8160  13.8622  13.8950  13.8973  13.9681  14.0415  14.1095  14.1201
    14.1524  14.1799  14.1911  14.2464  14.2630  14.2770  14.2824  14.2845
    14.3131  14.3307  14.3450  14.3465  14.3908  14.3933  14.3970  14.4144
    14.4326  14.4559  14.4704  14.4853  14.5006  14.5018  14.5174  14.5371
    14.5620  14.5833  14.5969  14.6232  14.6954  14.7476  14.7610  14.7928
    14.8060  14.8115  14.9199  14.9214  15.1030  15.1577  15.1668  15.1969
    15.2090  15.2239  15.2318  15.2389  15.2400  15.2455  15.2566  15.2645
    15.2653  15.2701  15.2732  15.2767  15.2897  15.2898  15.2930  15.2934
    15.3145  15.3919  15.3953  15.4043  15.4249  15.4252  15.4554  15.4602
    15.4751  15.5413  15.5631  15.5667  15.5700  15.5728  15.5749  15.6199
    15.6225  15.6311  15.6598  15.6779  15.6858  15.6966  15.6999  15.7004
    15.8098  15.8131  15.8156  15.8924  15.8972  15.9107  15.9253  15.9707
    15.9791  15.9793  15.9913  15.9949  16.0113  16.0154  16.0333  16.0430
    16.0507  16.0514  16.0527  16.0611  16.0674  16.0680  16.0760  16.0820
    16.0893  16.0949  16.1135  16.1135  16.1359  16.1536  16.1677  16.1911
    16.1924  16.2021  16.2067  16.2082  16.3923  16.3939  16.4023  16.4667
    16.4900  16.5056  16.6231  16.6288  16.6638  16.7182  16.7484  16.7595
    16.8204  16.9103  16.9456  16.9822  17.0405  17.0492  17.0531  17.0876
    17.0927  17.1141  17.1142  17.1302  17.1630  17.1766  17.1859  17.1969
    17.2038  17.2115  17.2130  17.2242  17.2435  17.2455  17.2480  17.2654
    17.2789  17.3068  17.3120  17.3193  17.3423  17.3649  17.3713  17.3721
    17.3837  17.3919  17.4089  17.4220  17.4283  17.4291  17.4417  17.4606
    17.4857  17.4879  17.5107  17.5191  17.5265  17.5295  17.5296  17.5412
    17.5423  17.5452  17.5483  17.5500  17.5635  17.5712  17.5781  17.6020
    17.6054  17.6113  17.6178  17.6303  17.6385  17.6470  17.6472  17.6603
    17.6645  17.6793  17.6993  17.7165  17.7172  17.7233  17.7253  17.7374
    17.7375  17.7588  17.7740  17.7787  17.7813  17.7840  17.8206  17.8390
    17.8591  17.8771  17.8950  17.9024  17.9138  17.9518  17.9618  18.0579
    18.0629  18.0764  18.0776  18.0947  18.0953  18.1103  18.1264  18.1393
    18.1415  18.1591  18.1639  18.2167  18.2405  18.2745  18.3088  18.3417
    18.3757  18.4388  18.4871  18.5258  18.5474  18.5583  18.6391  18.7503
    18.7915  18.8271  18.8696  18.9066  18.9843  19.0631  19.1138  19.1560
    19.2733  19.3335  19.3484  19.3684  19.4591  19.5307  19.5440  19.6415
    19.7574  19.8390  19.8928  19.9715  20.0311  20.1047  20.1095  20.2129
    20.2165  20.2466  20.3976  20.5506  20.6252  20.7882  20.8315  20.8694

 ------ SPIN DOWN ----------


          k = 0.0000 0.0000 0.0000 ( 21879 PWs)   bands (ev):

   -66.8450 -66.7898 -66.7870 -66.7867 -66.7661 -66.7648 -66.7648 -66.7570
   -66.7557 -66.7557 -66.7353 -66.7353 -66.7255 -66.7227 -66.7182 -66.7182
   -66.7181 -66.7113 -66.7113 -66.7084 -66.7032 -66.7032 -66.6891 -66.6891
   -66.6850 -66.6850 -66.6810 -66.6799 -66.6491 -66.6459 -66.6452 -66.6452
   -66.6405 -66.6405 -66.5832 -66.5812 -66.5607 -66.5568 -66.5567 -66.5485
   -66.5482 -66.5469 -66.5423 -66.5346 -66.5345 -66.5079 -66.5068 -66.5065
   -66.5009 -42.5182 -42.5179 -42.5167 -42.4771 -42.4762 -33.1546 -33.1420
   -33.1367 -33.1364 -33.0529 -33.0438 -33.0437 -33.0202 -33.0201 -33.0063
   -33.0060 -33.0058 -32.9922 -32.9921 -32.9814 -32.9748 -32.9731 -32.9675
   -32.9675 -32.9514 -32.9514 -32.9513 -32.9420 -32.9420 -32.9399 -32.9366
   -32.9310 -32.9310 -32.9142 -32.9141 -32.9099 -32.9099 -32.9088 -32.9080
   -32.9044 -32.9044 -32.9014 -32.8939 -32.8939 -32.8931 -32.8809 -32.8778
   -32.8741 -32.8741 -32.8652 -32.8642 -32.8642 -32.8601 -32.8516 -32.8516
   -32.8497 -32.8458 -32.8435 -32.8435 -32.8322 -32.8290 -32.8290 -32.8260
   -32.8259 -32.8111 -32.8111 -32.8039 -32.8039 -32.7885 -32.7880 -32.7880
   -32.7868 -32.7859 -32.7766 -32.7766 -32.7741 -32.7679 -32.7679 -32.7676
   -32.7486 -32.7485 -32.7441 -32.7344 -32.7344 -32.7209 -32.7194 -32.7194
   -32.7112 -32.7111 -32.7087 -32.7087 -32.7020 -32.7020 -32.6994 -32.6842
   -32.6830 -32.6774 -32.6743 -32.6741 -32.6732 -32.6732 -32.6710 -32.6637
   -32.6637 -32.6614 -32.6574 -32.6574 -32.6554 -32.6553 -32.6525 -32.6469
   -32.6432 -32.6321 -32.6320 -32.6277 -32.6277 -32.6274 -32.6209 -32.6208
   -32.6119 -32.6077 -32.6032 -32.5953 -32.5953 -32.5837 -32.5835 -32.5752
   -32.5730 -32.5728 -32.5667 -32.5655 -32.5654 -32.5559 -32.5558 -32.5527
   -32.5401 -32.5343 -32.5342 -32.5304 -32.5298 -32.5297 -32.5254 -32.5254
   -32.5203 -32.5201 -32.5112 -32.5112 -32.5094 -32.5082 -32.4959 -32.4959
   -32.4462 -16.7314 -16.7311 -16.7148 -16.6841 -16.6730 -16.6721 -16.6718
   -16.6715 -16.6692 -16.6688 -16.6684 -16.6346 -16.6346 -16.6343 -16.6342
    10.4178  12.5231  12.5234  12.5530  12.5756  12.5851  12.5853  13.6911
    13.6911  13.7953  13.7953  13.7989  13.8696  13.9327  13.9556  13.9557
    14.0108  14.0109  14.0970  14.8295  14.8295  14.9545  14.9546  15.0207
    15.0207  15.0408  15.0437  15.1360  15.1361  15.2716  15.3661  15.3971
    15.3973  15.4959  15.5029  15.5031  15.5384  15.5947  15.5950  15.6256
    15.7354  15.7833  15.7833  15.8295  15.8802  15.8802  15.9341  15.9976
    15.9976  16.2107  16.2324  16.2324  16.2421  16.3007  16.3557  16.3558
    16.4385  16.4385  16.4660  16.5194  16.5194  16.5853  16.6427  16.6651
    16.6971  16.6972  16.7203  16.7381  16.7383  16.8626  16.8626  16.9285
    16.9415  16.9415  16.9466  17.0324  17.0489  17.0490  17.0735  17.0859
    17.0860  17.1017  17.1017  17.1395  17.1395  17.1599  17.1600  17.1720
    17.1758  17.1909  17.1910  17.2125  17.2125  17.2291  17.3066  17.3067
    17.3580  17.3581  17.3872  17.3947  17.3947  17.4096  17.4097  17.4266
    17.4484  17.4485  17.4568  17.4985  17.4986  17.5295  17.5351  17.5353
    17.5363  17.5771  17.5772  17.6173  17.6749  17.6914  17.6914  17.7197
    17.7197  17.7212  17.8202  17.8466  17.8542  17.8543  17.8685  17.8756
    17.8756  17.9377  17.9593  17.9593  17.9707  18.0454  18.0454  18.0647
    18.1071  18.1071  18.1171  18.1907  18.1907  18.3697  18.3746  18.3746
    18.3795  18.3887  18.3888  18.4358  18.4359  18.4466  18.4477  18.4642
    18.4643  18.5188  18.5283  18.5283  19.0050  19.0051  19.0290  19.0291
    19.0349  19.0454  19.0655  19.0810  19.1004  19.1006  19.1137  19.1138
    19.4371  19.4371  19.4457  19.4621  19.4621  19.4935  19.5031  19.5051
    19.5052  19.5063  19.5189  19.5189  19.5882  19.5891  19.5891  19.5991
    19.6079  19.6079  19.6277  19.6284  19.6284  19.6452  19.6452  19.6471
    20.0821  20.1183  20.1184  20.1266  20.1318  20.1318  20.1529  20.1530
    20.1540  20.1611  20.1636  20.1637  20.3715  20.3807  20.3816  20.3816
    20.3909  20.3910  20.3946  20.3947  20.3977  20.4113  20.4114  20.4168
    20.4195  20.4196  20.4285  20.4329  20.4330  20.4497  20.4647  20.4647
    20.4812  20.4879  20.4915  20.4915  20.5018  20.5019  20.5195  20.5196
    20.5230  20.5307  20.5383  20.5384  20.5542  20.5542  20.5617  20.5650
    20.5651  20.5709  20.5709  20.5792  20.5960  20.6038  20.6038  20.6138
    20.6144  20.6162  20.6163  20.6427  20.6428  20.6496  20.6497  20.6572
    20.6799  20.6799  20.6911  20.6913  20.6914  20.7139  20.7139  20.7237
    20.7237  20.7740  20.8462  20.8462  20.9632  20.9632  20.9793  20.9838
    21.1357  21.1358  21.1669  21.2319  21.2319  21.3226  21.3226  21.4720
    21.4866  21.4908  21.4909  21.5115  21.5393  21.5393  21.7096  21.7096
    21.8605  22.4729  22.7067  22.7068  22.7478  22.8055  22.8867  22.8868

          k = 0.0000 0.0000 0.3333 ( 21891 PWs)   bands (ev):

   -66.8450 -66.7892 -66.7877 -66.7867 -66.7667 -66.7651 -66.7646 -66.7569
   -66.7558 -66.7555 -66.7353 -66.7332 -66.7288 -66.7210 -66.7184 -66.7182
   -66.7177 -66.7133 -66.7119 -66.7062 -66.7037 -66.7021 -66.6900 -66.6885
   -66.6858 -66.6848 -66.6810 -66.6795 -66.6499 -66.6457 -66.6452 -66.6439
   -66.6412 -66.6405 -66.5831 -66.5812 -66.5605 -66.5575 -66.5565 -66.5486
   -66.5482 -66.5469 -66.5413 -66.5365 -66.5335 -66.5083 -66.5078 -66.5042
   -66.5017 -42.5185 -42.5175 -42.5169 -42.4771 -42.4762 -33.1548 -33.1417
   -33.1398 -33.1354 -33.0543 -33.0493 -33.0360 -33.0190 -33.0135 -33.0096
   -33.0037 -32.9973 -32.9903 -32.9869 -32.9813 -32.9731 -32.9722 -32.9693
   -32.9671 -32.9573 -32.9559 -32.9495 -32.9454 -32.9385 -32.9366 -32.9349
   -32.9320 -32.9285 -32.9235 -32.9192 -32.9154 -32.9139 -32.9075 -32.9068
   -32.9053 -32.9038 -32.8985 -32.8963 -32.8901 -32.8869 -32.8838 -32.8780
   -32.8731 -32.8714 -32.8682 -32.8647 -32.8638 -32.8616 -32.8592 -32.8557
   -32.8534 -32.8438 -32.8409 -32.8328 -32.8314 -32.8255 -32.8240 -32.8184
   -32.8170 -32.8108 -32.8058 -32.7917 -32.7909 -32.7884 -32.7842 -32.7819
   -32.7770 -32.7752 -32.7722 -32.7694 -32.7631 -32.7606 -32.7577 -32.7557
   -32.7531 -32.7494 -32.7436 -32.7357 -32.7340 -32.7286 -32.7260 -32.7221
   -32.7197 -32.7153 -32.7151 -32.7111 -32.7092 -32.7051 -32.7019 -32.6990
   -32.6923 -32.6913 -32.6871 -32.6851 -32.6837 -32.6791 -32.6768 -32.6678
   -32.6658 -32.6615 -32.6573 -32.6567 -32.6546 -32.6512 -32.6482 -32.6460
   -32.6451 -32.6374 -32.6330 -32.6288 -32.6247 -32.6237 -32.6208 -32.6170
   -32.6128 -32.6089 -32.6048 -32.6030 -32.5872 -32.5808 -32.5783 -32.5710
   -32.5690 -32.5674 -32.5623 -32.5609 -32.5590 -32.5557 -32.5526 -32.5516
   -32.5503 -32.5442 -32.5393 -32.5377 -32.5363 -32.5312 -32.5292 -32.5286
   -32.5269 -32.5200 -32.5173 -32.5143 -32.5110 -32.5034 -32.5026 -32.4849
   -32.4588 -16.7361 -16.7238 -16.7173 -16.6841 -16.6729 -16.6720 -16.6717
   -16.6714 -16.6692 -16.6688 -16.6685 -16.6347 -16.6346 -16.6342 -16.6342
    10.6731  11.4232  12.7107  12.7326  12.7573  12.7795  13.2094  13.2376
    13.2773  13.3155  13.8281  13.9367  14.0271  14.1080  14.1837  14.3199
    14.3383  14.3576  14.4469  14.5928  14.6439  14.6837  14.7403  14.7818
    14.8817  14.9261  14.9719  15.0254  15.1015  15.1726  15.2105  15.2411
    15.2994  15.3374  15.4175  15.4650  15.5548  15.6017  15.6194  15.7550
    15.7938  15.8315  15.9290  15.9330  15.9969  16.0080  16.0299  16.0700
    16.0759  16.1133  16.1794  16.1989  16.2227  16.2815  16.2930  16.3152
    16.3489  16.4225  16.4364  16.4580  16.4834  16.5700  16.6401  16.6549
    16.7045  16.7554  16.8006  16.8343  16.8487  16.8659  16.8869  16.9202
    16.9285  16.9478  16.9615  16.9643  17.0090  17.0334  17.0546  17.0603
    17.0929  17.1069  17.1180  17.1403  17.1628  17.2019  17.2215  17.2473
    17.2542  17.2714  17.2966  17.3017  17.3194  17.3408  17.3445  17.3554
    17.3586  17.3717  17.3751  17.3794  17.3904  17.3948  17.4007  17.4078
    17.4232  17.4341  17.4393  17.4627  17.4766  17.4909  17.5109  17.5245
    17.5498  17.5671  17.5753  17.6381  17.6408  17.6723  17.6775  17.6997
    17.7330  17.7719  17.7778  17.7869  17.8110  17.9567  17.9714  17.9778
    18.0003  18.0088  18.0285  18.0354  18.0583  18.0874  18.0921  18.1036
    18.1245  18.1506  18.1819  18.1914  18.1943  18.2117  18.2372  18.2948
    18.3062  18.3230  18.3447  18.3501  18.3724  18.3732  18.3875  18.4051
    18.4187  18.4391  18.5075  18.6002  18.6108  18.7063  18.9190  18.9415
    19.0155  19.0384  19.0658  19.0745  19.3314  19.3341  19.3543  19.3596
    19.3770  19.3830  19.3968  19.4011  19.4133  19.4197  19.4230  19.4354
    19.4468  19.4606  19.4705  19.4790  19.5166  19.7575  19.7772  19.7872
    19.8028  19.8153  19.8583  19.8825  19.8836  19.8925  19.9039  19.9169
    19.9230  19.9323  19.9768  20.0094  20.0274  20.0355  20.0397  20.1104
    20.1128  20.1218  20.1275  20.1474  20.1584  20.1731  20.1788  20.1852
    20.1887  20.2005  20.2072  20.2322  20.2470  20.2547  20.3220  20.3327
    20.3470  20.3668  20.3963  20.4125  20.4285  20.4429  20.4465  20.4627
    20.4838  20.4974  20.5055  20.5144  20.5267  20.5469  20.5549  20.5631
    20.5683  20.5862  20.6113  20.6129  20.6232  20.6368  20.6391  20.6416
    20.6585  20.6770  20.6897  20.6933  20.7045  20.7118  20.7224  20.7289
    20.7373  20.7466  20.7580  20.7881  20.7957  20.8070  20.8201  20.8386
    20.8498  20.8681  20.8817  20.8827  20.8897  20.9126  20.9194  20.9356
    20.9477  20.9557  20.9574  20.9686  20.9980  21.0104  21.0348  21.0856
    21.1051  21.1163  21.1355  21.1540  21.1617  21.1701  21.2155  21.2816
    21.2864  21.3061  21.3458  21.3754  21.4460  21.4655  21.5553  21.6017
    21.6285  21.7631  21.8399  21.8668  21.8982  21.9136  21.9635  22.0206

          k = 0.0000 0.3333 0.3333 ( 21886 PWs)   bands (ev):

   -66.8450 -66.7888 -66.7875 -66.7873 -66.7670 -66.7650 -66.7648 -66.7568
   -66.7556 -66.7554 -66.7340 -66.7337 -66.7276 -66.7241 -66.7191 -66.7175
   -66.7164 -66.7146 -66.7113 -66.7048 -66.7038 -66.7023 -66.6896 -66.6885
   -66.6867 -66.6852 -66.6801 -66.6798 -66.6505 -66.6455 -66.6444 -66.6435
   -66.6416 -66.6408 -66.5831 -66.5813 -66.5602 -66.5577 -66.5567 -66.5486
   -66.5482 -66.5469 -66.5405 -66.5361 -66.5347 -66.5080 -66.5067 -66.5057
   -66.5014 -42.5182 -42.5179 -42.5167 -42.4771 -42.4762 -33.1549 -33.1420
   -33.1382 -33.1376 -33.0564 -33.0456 -33.0433 -33.0160 -33.0152 -33.0062
   -33.0056 -32.9993 -32.9868 -32.9859 -32.9809 -32.9766 -32.9733 -32.9733
   -32.9691 -32.9596 -32.9533 -32.9505 -32.9437 -32.9414 -32.9360 -32.9357
   -32.9328 -32.9292 -32.9247 -32.9216 -32.9181 -32.9151 -32.9115 -32.9106
   -32.9054 -32.9049 -32.8967 -32.8917 -32.8916 -32.8835 -32.8809 -32.8786
   -32.8731 -32.8723 -32.8681 -32.8650 -32.8643 -32.8633 -32.8586 -32.8548
   -32.8468 -32.8437 -32.8362 -32.8358 -32.8314 -32.8282 -32.8228 -32.8213
   -32.8131 -32.8106 -32.8073 -32.7984 -32.7958 -32.7904 -32.7804 -32.7803
   -32.7779 -32.7770 -32.7713 -32.7676 -32.7658 -32.7648 -32.7582 -32.7534
   -32.7505 -32.7453 -32.7410 -32.7406 -32.7356 -32.7300 -32.7299 -32.7233
   -32.7169 -32.7157 -32.7118 -32.7107 -32.7048 -32.7040 -32.6985 -32.6976
   -32.6921 -32.6824 -32.6821 -32.6793 -32.6789 -32.6773 -32.6732 -32.6730
   -32.6720 -32.6649 -32.6623 -32.6585 -32.6582 -32.6511 -32.6503 -32.6466
   -32.6439 -32.6419 -32.6349 -32.6310 -32.6279 -32.6261 -32.6195 -32.6190
   -32.6133 -32.6123 -32.6046 -32.6006 -32.6002 -32.5813 -32.5779 -32.5682
   -32.5674 -32.5613 -32.5604 -32.5577 -32.5575 -32.5507 -32.5506 -32.5481
   -32.5426 -32.5399 -32.5383 -32.5379 -32.5322 -32.5291 -32.5283 -32.5260
   -32.5222 -32.5209 -32.5152 -32.5140 -32.5106 -32.5059 -32.5027 -32.5020
   -32.4502 -16.7314 -16.7311 -16.7147 -16.6841 -16.6730 -16.6721 -16.6717
   -16.6714 -16.6691 -16.6688 -16.6685 -16.6346 -16.6346 -16.6342 -16.6341
    10.9281  11.6541  11.6577  12.3131  12.9385  12.9455  13.3670  13.4561
    13.4913  13.5379  13.9316  13.9505  13.9747  14.0005  14.2667  14.2782
    14.4235  14.4550  14.4777  14.5240  14.5412  14.7416  14.7442  14.8495
    14.8869  15.0023  15.0189  15.0750  15.0857  15.1536  15.1920  15.2601
    15.3438  15.3654  15.3809  15.4485  15.4934  15.5657  15.6018  15.6165
    15.6931  15.6987  15.7586  15.7797  15.8950  15.9359  16.0102  16.0141
    16.0602  16.0692  16.1230  16.1959  16.2289  16.2313  16.2488  16.3544
    16.3576  16.4242  16.4653  16.4978  16.5078  16.5382  16.5877  16.6088
    16.6161  16.7235  16.7725  16.7979  16.8172  16.8735  16.8761  16.8923
    16.9001  16.9156  16.9274  16.9571  16.9740  16.9943  17.0092  17.0502
    17.0846  17.1470  17.1703  17.1968  17.2114  17.2345  17.2517  17.2544
    17.2661  17.2883  17.3073  17.3170  17.3422  17.3445  17.3721  17.3778
    17.4134  17.4227  17.4359  17.4489  17.4588  17.4608  17.4952  17.5110
    17.5311  17.5498  17.5520  17.5750  17.5802  17.6100  17.6126  17.6382
    17.6404  17.6750  17.6937  17.7153  17.7325  17.7720  17.7778  17.7895
    17.7928  17.8195  17.8282  17.8352  17.8498  17.8697  17.8715  17.8956
    17.9033  17.9237  17.9621  17.9718  17.9818  17.9884  17.9977  17.9987
    18.0221  18.0223  18.0392  18.0616  18.0682  18.0778  18.1003  18.1272
    18.1457  18.1554  18.2329  18.2341  18.2612  18.2795  18.3103  18.4023
    18.5224  18.5332  18.6070  18.6096  18.6825  18.9007  19.0035  19.0164
    19.0177  19.0213  19.0687  19.0713  19.1225  19.1495  19.4952  19.5197
    19.5415  19.5453  19.5579  19.5638  19.6417  19.6603  19.6657  19.6854
    19.7003  19.7093  19.7155  19.7347  19.7401  19.7652  19.7821  19.7823
    19.8766  19.8826  19.8886  19.8948  19.9217  19.9456  19.9643  19.9688
    19.9863  19.9937  20.0098  20.0191  20.0255  20.0316  20.0331  20.0766
    20.0945  20.1194  20.1291  20.1414  20.1468  20.1779  20.1784  20.1858
    20.2118  20.2227  20.2276  20.2331  20.2522  20.2679  20.2756  20.2934
    20.3026  20.3103  20.3463  20.3519  20.3828  20.3855  20.4014  20.4366
    20.4404  20.4448  20.4969  20.5012  20.5054  20.5093  20.5216  20.5295
    20.5433  20.5558  20.5634  20.5688  20.5864  20.6106  20.6153  20.6227
    20.6229  20.6409  20.6495  20.6596  20.6621  20.6868  20.6944  20.7040
    20.7054  20.7157  20.7169  20.7388  20.7437  20.7574  20.7628  20.7643
    20.7851  20.7906  20.8172  20.8283  20.8314  20.8627  20.8709  20.8999
    20.9192  20.9314  20.9481  20.9533  20.9825  20.9854  20.9983  21.0046
    21.0362  21.0832  21.1139  21.1358  21.1625  21.2073  21.2227  21.2360
    21.2412  21.3160  21.3236  21.3649  21.4254  21.4424  21.4837  21.6016
    21.7136  21.7389  21.8006  21.8213  21.8402  21.8485  22.0666  22.1150

          k = 0.3333 0.3333 0.3333 ( 21842 PWs)   bands (ev):

   -66.8450 -66.7884 -66.7877 -66.7873 -66.7673 -66.7654 -66.7648 -66.7563
   -66.7557 -66.7554 -66.7348 -66.7310 -66.7282 -66.7239 -66.7221 -66.7195
   -66.7143 -66.7130 -66.7115 -66.7052 -66.7032 -66.7022 -66.6899 -66.6885
   -66.6870 -66.6847 -66.6812 -66.6791 -66.6510 -66.6447 -66.6440 -66.6435
   -66.6416 -66.6416 -66.5830 -66.5813 -66.5600 -66.5576 -66.5572 -66.5486
   -66.5482 -66.5468 -66.5395 -66.5368 -66.5351 -66.5084 -66.5070 -66.5041
   -66.5022 -42.5184 -42.5174 -42.5168 -42.4771 -42.4762 -33.1543 -33.1418
   -33.1398 -33.1373 -33.0545 -33.0505 -33.0410 -33.0188 -33.0128 -33.0101
   -33.0000 -32.9929 -32.9875 -32.9856 -32.9817 -32.9789 -32.9737 -32.9708
   -32.9675 -32.9579 -32.9527 -32.9512 -32.9473 -32.9437 -32.9419 -32.9368
   -32.9294 -32.9288 -32.9273 -32.9233 -32.9189 -32.9135 -32.9116 -32.9080
   -32.9063 -32.9002 -32.8945 -32.8923 -32.8885 -32.8880 -32.8816 -32.8803
   -32.8746 -32.8726 -32.8712 -32.8657 -32.8580 -32.8573 -32.8569 -32.8518
   -32.8507 -32.8406 -32.8384 -32.8346 -32.8294 -32.8260 -32.8188 -32.8156
   -32.8087 -32.8071 -32.8053 -32.8017 -32.7950 -32.7932 -32.7910 -32.7858
   -32.7812 -32.7759 -32.7696 -32.7622 -32.7601 -32.7587 -32.7554 -32.7527
   -32.7467 -32.7453 -32.7426 -32.7377 -32.7346 -32.7284 -32.7253 -32.7207
   -32.7200 -32.7155 -32.7118 -32.7094 -32.7034 -32.7029 -32.7020 -32.6979
   -32.6947 -32.6910 -32.6859 -32.6827 -32.6794 -32.6785 -32.6776 -32.6715
   -32.6666 -32.6640 -32.6613 -32.6597 -32.6570 -32.6536 -32.6528 -32.6433
   -32.6402 -32.6383 -32.6301 -32.6266 -32.6250 -32.6243 -32.6210 -32.6176
   -32.6149 -32.6054 -32.6021 -32.6008 -32.5942 -32.5813 -32.5739 -32.5727
   -32.5675 -32.5631 -32.5608 -32.5594 -32.5548 -32.5521 -32.5495 -32.5475
   -32.5461 -32.5413 -32.5403 -32.5395 -32.5317 -32.5299 -32.5287 -32.5274
   -32.5257 -32.5201 -32.5158 -32.5134 -32.5081 -32.5044 -32.5035 -32.4820
   -32.4585 -16.7361 -16.7238 -16.7173 -16.6840 -16.6732 -16.6721 -16.6718
   -16.6714 -16.6691 -16.6688 -16.6683 -16.6346 -16.6345 -16.6342 -16.6341
    11.1779  11.8852  11.8895  11.8928  12.5171  12.5383  12.5617  13.1595
    14.0265  14.0539  14.0852  14.2298  14.2695  14.3182  14.3532  14.3984
    14.4588  14.5411  14.5846  14.6602  14.7213  14.7833  14.8272  14.8485
    14.8733  14.9043  14.9944  15.0738  15.0925  15.1439  15.2192  15.2605
    15.2986  15.3188  15.3507  15.3677  15.3858  15.4553  15.4992  15.5875
    15.6042  15.6428  15.7171  15.7343  15.7664  15.8475  15.9098  15.9465
    15.9504  15.9658  16.0120  16.0918  16.1471  16.1778  16.1884  16.3568
    16.3839  16.4203  16.4755  16.4946  16.5061  16.5321  16.5585  16.5816
    16.5905  16.6182  16.6925  16.7172  16.7295  16.7643  16.7959  16.8128
    16.8371  16.8646  16.9304  16.9664  17.0341  17.0578  17.0885  17.0929
    17.1216  17.1430  17.1551  17.1579  17.1704  17.1944  17.2244  17.2400
    17.2514  17.2593  17.2838  17.2907  17.3056  17.3155  17.3694  17.3805
    17.4002  17.4244  17.4539  17.4718  17.4796  17.4988  17.5125  17.5403
    17.5760  17.5822  17.6011  17.6157  17.6537  17.6567  17.6833  17.7152
    17.7470  17.7562  17.7678  17.7826  17.8005  17.8011  17.8086  17.8183
    17.8257  17.8480  17.8532  17.8585  17.8833  17.8987  17.9102  17.9120
    17.9268  17.9456  17.9495  17.9561  17.9643  17.9750  17.9965  18.0049
    18.0316  18.0542  18.0812  18.0882  18.1071  18.1153  18.1832  18.1862
    18.2232  18.2344  18.3028  18.3380  18.3850  18.3956  18.4040  18.4140
    18.4797  18.5220  18.5536  18.6159  18.6682  18.7020  18.9382  19.0632
    19.0915  19.1063  19.2301  19.2513  19.2626  19.2671  19.2886  19.3011
    19.3114  19.3186  19.3256  19.6235  19.6362  19.6385  19.6493  19.6507
    19.6634  19.7024  19.7482  19.7593  19.7633  19.7745  19.7778  19.7836
    19.7971  19.8237  19.8573  19.9264  19.9355  19.9469  19.9660  19.9968
    20.0035  20.0107  20.0269  20.0418  20.0426  20.0543  20.0604  20.1294
    20.1319  20.1413  20.1677  20.2083  20.2155  20.2181  20.2292  20.2418
    20.2623  20.2862  20.2938  20.2989  20.3029  20.3106  20.3199  20.3279
    20.3351  20.3425  20.3826  20.3949  20.4028  20.4114  20.4154  20.4298
    20.4341  20.4435  20.4500  20.4578  20.4695  20.4787  20.4873  20.5094
    20.5212  20.5302  20.5559  20.5666  20.5927  20.6144  20.6187  20.6323
    20.6378  20.6393  20.6464  20.6629  20.6693  20.6781  20.6946  20.7012
    20.7026  20.7101  20.7255  20.7311  20.7418  20.7560  20.7606  20.7714
    20.7754  20.8016  20.8121  20.8246  20.8431  20.8576  20.8718  20.8803
    20.8943  20.9132  20.9166  20.9380  20.9589  20.9813  21.0120  21.0292
    21.0660  21.0951  21.1307  21.1476  21.1763  21.1934  21.2061  21.2411
    21.2509  21.2918  21.3450  21.3649  21.4141  21.4526  21.5114  21.8520
    21.8876  21.9552  21.9985  22.0163  22.1014  22.1320  22.1478  22.2222

          k =-0.3333 0.0000 0.3333 ( 21886 PWs)   bands (ev):

   -66.8450 -66.7886 -66.7880 -66.7869 -66.7671 -66.7654 -66.7643 -66.7565
   -66.7559 -66.7555 -66.7345 -66.7311 -66.7309 -66.7221 -66.7195 -66.7186
   -66.7163 -66.7140 -66.7107 -66.7056 -66.7035 -66.7025 -66.6896 -66.6880
   -66.6865 -66.6856 -66.6807 -66.6794 -66.6505 -66.6455 -66.6440 -66.6439
   -66.6416 -66.6408 -66.5831 -66.5813 -66.5602 -66.5579 -66.5566 -66.5486
   -66.5482 -66.5469 -66.5401 -66.5375 -66.5338 -66.5084 -66.5076 -66.5035
   -66.5024 -42.5185 -42.5175 -42.5168 -42.4771 -42.4762 -33.1548 -33.1421
   -33.1402 -33.1364 -33.0552 -33.0501 -33.0388 -33.0171 -33.0120 -33.0095
   -33.0039 -32.9972 -32.9896 -32.9829 -32.9821 -32.9786 -32.9743 -32.9691
   -32.9659 -32.9624 -32.9519 -32.9482 -32.9460 -32.9448 -32.9406 -32.9347
   -32.9325 -32.9302 -32.9278 -32.9217 -32.9216 -32.9123 -32.9108 -32.9079
   -32.9064 -32.9030 -32.8984 -32.8967 -32.8903 -32.8892 -32.8829 -32.8759
   -32.8732 -32.8716 -32.8702 -32.8634 -32.8622 -32.8599 -32.8551 -32.8525
   -32.8491 -32.8447 -32.8364 -32.8345 -32.8293 -32.8252 -32.8190 -32.8119
   -32.8097 -32.8068 -32.8038 -32.7974 -32.7944 -32.7927 -32.7857 -32.7845
   -32.7807 -32.7775 -32.7735 -32.7713 -32.7694 -32.7639 -32.7578 -32.7563
   -32.7504 -32.7448 -32.7419 -32.7402 -32.7388 -32.7342 -32.7297 -32.7256
   -32.7215 -32.7180 -32.7134 -32.7090 -32.7083 -32.6994 -32.6975 -32.6946
   -32.6924 -32.6903 -32.6862 -32.6846 -32.6790 -32.6777 -32.6729 -32.6707
   -32.6666 -32.6649 -32.6588 -32.6556 -32.6544 -32.6507 -32.6464 -32.6444
   -32.6418 -32.6372 -32.6333 -32.6267 -32.6248 -32.6219 -32.6205 -32.6159
   -32.6149 -32.6089 -32.6029 -32.6009 -32.6002 -32.5826 -32.5786 -32.5773
   -32.5698 -32.5669 -32.5651 -32.5602 -32.5570 -32.5529 -32.5496 -32.5487
   -32.5474 -32.5426 -32.5406 -32.5379 -32.5340 -32.5305 -32.5284 -32.5273
   -32.5258 -32.5189 -32.5153 -32.5120 -32.5091 -32.5038 -32.4994 -32.4786
   -32.4618 -16.7361 -16.7238 -16.7173 -16.6842 -16.6729 -16.6720 -16.6718
   -16.6714 -16.6692 -16.6689 -16.6685 -16.6346 -16.6346 -16.6342 -16.6341
    10.9285  11.6441  11.6669  12.3147  12.9360  12.9457  13.4047  13.4404
    13.4905  13.5176  13.9414  13.9526  13.9843  13.9955  14.1556  14.2489
    14.4149  14.4501  14.4804  14.6230  14.7377  14.7539  14.7863  14.8561
    14.8664  14.8897  14.9656  15.0159  15.1229  15.1487  15.1655  15.2431
    15.3249  15.3563  15.4067  15.4278  15.5125  15.5311  15.5901  15.6377
    15.6691  15.6815  15.7407  15.8233  15.9194  15.9417  15.9946  16.0236
    16.0859  16.1178  16.1408  16.1957  16.2056  16.2492  16.2685  16.3447
    16.3674  16.4161  16.4663  16.4929  16.5167  16.5589  16.5692  16.6428
    16.6805  16.6902  16.7279  16.7828  16.8138  16.8245  16.8597  16.8921
    16.8939  16.9085  16.9335  16.9687  16.9802  16.9997  17.0267  17.0675
    17.0922  17.1223  17.1507  17.1604  17.1925  17.2343  17.2563  17.2594
    17.2833  17.3111  17.3236  17.3307  17.3539  17.3581  17.3671  17.3778
    17.3988  17.4050  17.4214  17.4262  17.4532  17.4682  17.4790  17.5007
    17.5375  17.5643  17.5769  17.5853  17.5877  17.6047  17.6117  17.6277
    17.6410  17.6484  17.6706  17.7201  17.7431  17.7534  17.7584  17.7744
    17.7955  17.8123  17.8311  17.8375  17.8507  17.8895  17.9052  17.9180
    17.9269  17.9383  17.9444  17.9558  17.9764  17.9849  17.9938  18.0109
    18.0189  18.0393  18.0492  18.0705  18.0767  18.0797  18.1098  18.1151
    18.1375  18.1901  18.2055  18.2354  18.2682  18.3085  18.3202  18.3938
    18.4623  18.5290  18.5809  18.6305  18.6862  18.8912  18.9897  19.0021
    19.0220  19.0435  19.0570  19.0879  19.0958  19.1853  19.4714  19.5201
    19.5358  19.5504  19.5565  19.5727  19.6403  19.6503  19.6760  19.6809
    19.6999  19.7038  19.7202  19.7313  19.7357  19.7461  19.7627  19.7915
    19.8517  19.8913  19.8986  19.9098  19.9460  19.9492  19.9528  19.9589
    19.9723  19.9842  20.0051  20.0138  20.0158  20.0356  20.0490  20.0905
    20.1123  20.1369  20.1403  20.1479  20.1590  20.1886  20.1959  20.2076
    20.2099  20.2206  20.2273  20.2342  20.2459  20.2701  20.2856  20.2923
    20.3120  20.3220  20.3337  20.3344  20.3399  20.3496  20.3936  20.4151
    20.4360  20.4478  20.4734  20.4931  20.5010  20.5081  20.5227  20.5325
    20.5470  20.5515  20.5698  20.5754  20.5882  20.6009  20.6091  20.6195
    20.6260  20.6413  20.6518  20.6585  20.6662  20.6690  20.6771  20.6843
    20.6980  20.7103  20.7127  20.7167  20.7354  20.7384  20.7461  20.7631
    20.7842  20.8065  20.8188  20.8354  20.8430  20.8807  20.8908  20.9066
    20.9229  20.9575  20.9675  20.9806  20.9879  20.9972  21.0303  21.0572
    21.0682  21.1076  21.1249  21.1378  21.1643  21.1755  21.1862  21.2178
    21.2712  21.2862  21.3357  21.3454  21.3828  21.4510  21.4885  21.6028
    21.6588  21.7381  21.8108  21.8537  21.8635  21.9210  22.0639  22.0832

          k = 0.3333 0.3333-0.3333 ( 21842 PWs)   bands (ev):

   -66.8450 -66.7883 -66.7880 -66.7872 -66.7672 -66.7660 -66.7642 -66.7563
   -66.7558 -66.7554 -66.7333 -66.7311 -66.7308 -66.7221 -66.7220 -66.7206
   -66.7140 -66.7116 -66.7111 -66.7073 -66.7025 -66.7023 -66.6902 -66.6887
   -66.6856 -66.6842 -66.6829 -66.6787 -66.6510 -66.6442 -66.6440 -66.6439
   -66.6416 -66.6416 -66.5830 -66.5813 -66.5599 -66.5581 -66.5567 -66.5486
   -66.5482 -66.5468 -66.5384 -66.5381 -66.5349 -66.5081 -66.5065 -66.5053
   -66.5018 -42.5182 -42.5178 -42.5167 -42.4770 -42.4762 -33.1542 -33.1427
   -33.1376 -33.1372 -33.0572 -33.0465 -33.0453 -33.0152 -33.0089 -33.0079
   -33.0013 -33.0000 -32.9869 -32.9856 -32.9799 -32.9798 -32.9725 -32.9683
   -32.9681 -32.9577 -32.9522 -32.9496 -32.9479 -32.9463 -32.9432 -32.9319
   -32.9315 -32.9301 -32.9258 -32.9256 -32.9220 -32.9131 -32.9109 -32.9072
   -32.9068 -32.8978 -32.8960 -32.8903 -32.8883 -32.8879 -32.8828 -32.8819
   -32.8812 -32.8741 -32.8699 -32.8670 -32.8632 -32.8604 -32.8533 -32.8530
   -32.8451 -32.8394 -32.8389 -32.8338 -32.8292 -32.8218 -32.8146 -32.8137
   -32.8132 -32.8019 -32.7988 -32.7987 -32.7964 -32.7936 -32.7918 -32.7843
   -32.7831 -32.7771 -32.7731 -32.7685 -32.7663 -32.7604 -32.7550 -32.7541
   -32.7538 -32.7452 -32.7441 -32.7402 -32.7310 -32.7307 -32.7226 -32.7220
   -32.7182 -32.7161 -32.7128 -32.7029 -32.6989 -32.6974 -32.6958 -32.6946
   -32.6925 -32.6837 -32.6813 -32.6805 -32.6803 -32.6774 -32.6749 -32.6743
   -32.6681 -32.6672 -32.6644 -32.6582 -32.6575 -32.6571 -32.6553 -32.6527
   -32.6397 -32.6386 -32.6358 -32.6296 -32.6291 -32.6270 -32.6202 -32.6175
   -32.6145 -32.6037 -32.6024 -32.5993 -32.5982 -32.5770 -32.5760 -32.5700
   -32.5686 -32.5651 -32.5596 -32.5574 -32.5563 -32.5496 -32.5490 -32.5481
   -32.5409 -32.5406 -32.5398 -32.5353 -32.5346 -32.5305 -32.5266 -32.5257
   -32.5201 -32.5191 -32.5153 -32.5150 -32.5067 -32.5055 -32.5021 -32.5005
   -32.4530 -16.7314 -16.7311 -16.7147 -16.6841 -16.6730 -16.6721 -16.6718
   -16.6714 -16.6692 -16.6688 -16.6684 -16.6346 -16.6345 -16.6343 -16.6340
    11.1786  11.8809  11.8885  11.8935  12.5074  12.5469  12.5663  13.1673
    14.0247  14.1033  14.1383  14.1512  14.1606  14.3294  14.3367  14.4533
    14.5157  14.5384  14.5736  14.6952  14.7014  14.7149  14.7558  14.9020
    14.9118  15.0033  15.0085  15.0247  15.0767  15.1618  15.2234  15.2530
    15.2982  15.3066  15.3331  15.3478  15.4601  15.4933  15.5675  15.5782
    15.5940  15.6018  15.6488  15.6810  15.7169  15.7491  15.8924  15.9211
    15.9292  16.0615  16.0764  16.0845  16.1106  16.2038  16.2385  16.3670
    16.3745  16.4128  16.4747  16.5146  16.5204  16.5544  16.5549  16.5581
    16.6116  16.6475  16.6509  16.6998  16.7523  16.7666  16.7858  16.8376
    16.8513  16.8689  16.9489  17.0228  17.0527  17.0555  17.0753  17.0902
    17.0933  17.0958  17.1170  17.1415  17.1857  17.1937  17.2070  17.2070
    17.2255  17.2290  17.2692  17.2881  17.3243  17.3811  17.3818  17.3928
    17.4208  17.4353  17.4376  17.4457  17.5017  17.5124  17.5174  17.5505
    17.5716  17.5947  17.6088  17.6152  17.6491  17.6922  17.6946  17.7192
    17.7213  17.7393  17.7545  17.7648  17.7726  17.7887  17.7900  17.7910
    17.8081  17.8106  17.8380  17.8923  17.9178  17.9179  17.9214  17.9248
    17.9311  17.9359  17.9541  17.9596  17.9799  18.0192  18.0272  18.0288
    18.0305  18.0627  18.0851  18.1059  18.1156  18.1391  18.1418  18.1512
    18.2450  18.2472  18.2531  18.3025  18.3607  18.3902  18.4363  18.4424
    18.4438  18.4589  18.4923  18.6665  18.6747  18.7239  18.9164  19.1025
    19.1032  19.1146  19.2431  19.2517  19.2666  19.2767  19.2968  19.3061
    19.3223  19.3268  19.3383  19.5793  19.6219  19.6308  19.6331  19.6518
    19.6574  19.7212  19.7258  19.7305  19.7567  19.7794  19.7915  19.7940
    19.8195  19.8304  19.8804  19.9085  19.9101  19.9223  19.9416  19.9938
    19.9942  19.9948  20.0092  20.0135  20.0416  20.0436  20.0743  20.1284
    20.1359  20.1371  20.1938  20.1961  20.2100  20.2192  20.2608  20.2866
    20.2964  20.2991  20.3078  20.3190  20.3223  20.3248  20.3323  20.3342
    20.3396  20.3567  20.3733  20.3741  20.3947  20.4042  20.4173  20.4261
    20.4380  20.4574  20.4742  20.4773  20.4835  20.4877  20.4985  20.5038
    20.5064  20.5298  20.5304  20.5617  20.5670  20.5965  20.6189  20.6191
    20.6221  20.6410  20.6585  20.6672  20.6757  20.6841  20.6873  20.6894
    20.6985  20.7082  20.7153  20.7304  20.7347  20.7395  20.7628  20.7676
    20.7936  20.7962  20.7970  20.8241  20.8331  20.8340  20.8788  20.8917
    20.8921  20.9085  20.9330  20.9417  20.9471  20.9693  21.0620  21.0894
    21.0934  21.1012  21.1357  21.1452  21.1613  21.1967  21.2190  21.2264
    21.2400  21.2541  21.3055  21.3172  21.3693  21.4926  21.4961  21.8782
    21.9096  21.9106  21.9857  22.0711  22.1344  22.1499  22.1531  22.2092

     the Fermi energy is    18.7307 ev

!    total energy              =  -12837.95000173 Ry
     estimated scf accuracy    <       0.00000095 Ry
     smearing contrib. (-TS)   =       0.04257399 Ry
     internal energy E=F+TS    =  -12837.99257572 Ry

     The total energy is F=E-TS. E is the sum of the following terms:
     one-electron contribution =   -5624.00890436 Ry
     hartree contribution      =    3323.60302388 Ry
     xc contribution           =   -1458.02922112 Ry
     ewald contribution        =   -9079.55747411 Ry

     total magnetization       =   107.42 Bohr mag/cell
     absolute magnetization    =   121.94 Bohr mag/cell

     convergence has been achieved in  22 iterations

     Writing all to output data dir ./outdir/fe54_5mo_disp.save/ :
     XML data file, charge density, pseudopotentials, collected wavefunctions

     init_run     :     71.61s CPU     73.68s WALL (       1 calls)
     electrons    :   5594.33s CPU   5699.85s WALL (       1 calls)

     Called by init_run:
     wfcinit      :     66.94s CPU     68.64s WALL (       1 calls)
     potinit      :      1.06s CPU      1.13s WALL (       1 calls)
     hinit0       :      1.42s CPU      1.45s WALL (       1 calls)

     Called by electrons:
     c_bands      :   5042.90s CPU   5128.25s WALL (      22 calls)
     sum_band     :    491.61s CPU    506.02s WALL (      22 calls)
     v_of_rho     :     14.07s CPU     14.39s WALL (      23 calls)
     newd         :     43.30s CPU     48.88s WALL (      23 calls)
     mix_rho      :      3.91s CPU      4.02s WALL (      22 calls)

     Called by c_bands:
     init_us_2    :     22.19s CPU     22.24s WALL (     540 calls)
     cegterg      :   4947.39s CPU   5032.43s WALL (     264 calls)

     Called by *egterg:
     cdiaghg      :    639.73s CPU    656.25s WALL (    1258 calls)
     h_psi        :   1939.28s CPU   1981.88s WALL (    1270 calls)
     s_psi        :    483.18s CPU    484.07s WALL (    1270 calls)
     g_psi        :     11.45s CPU     11.46s WALL (     994 calls)

     Called by h_psi:
     h_psi:calbec :    512.97s CPU    515.72s WALL (    1270 calls)
     vloc_psi     :    931.80s CPU    961.63s WALL (    1270 calls)
                                        0.00s GPU  (    1270 calls)
     add_vuspsi   :    487.68s CPU    488.49s WALL (    1270 calls)

     General routines
     calbec       :    716.54s CPU    720.35s WALL (    1534 calls)
     fft          :      6.21s CPU      6.55s WALL (     569 calls)
     ffts         :      1.50s CPU      1.58s WALL (     509 calls)
     fftw         :    975.06s CPU   1008.05s WALL (  786654 calls)
     interpolate  :      1.05s CPU      1.08s WALL (      46 calls)

     Parallel routines

     PWSCF        :      1h34m CPU      1h36m WALL


   This run was terminated on:   2:39:57  21Jun2026            

=------------------------------------------------------------------------------=
   JOB DONE.
=------------------------------------------------------------------------------=
