
     Program PWSCF v.7.5 starts on 20Jun2026 at  6: 2:13 

     This program is part of the open-source Quantum ESPRESSO suite
     for quantum simulation of materials; please cite
         "P. Giannozzi et al., J. Phys.:Condens. Matter 21 395502 (2009);
         "P. Giannozzi et al., J. Phys.:Condens. Matter 29 465901 (2017);
         "P. Giannozzi et al., J. Chem. Phys. 152 154105 (2020);
          URL http://www.quantum-espresso.org", 
     in publications or presentations arising from this work. More details at
     http://www.quantum-espresso.org/quote

     Parallel version (MPI & OpenMP), running on       4 processor cores
     Number of MPI processes:                 4
     Threads/MPI process:                     1

     MPI processes distributed on     1 nodes
     24173 MiB available memory on the printing compute node when the environment starts

     Reading input from fe54_3ni_dispersed.scf.in

     Current dimensions of program PWSCF are:
     Max number of different atomic species (ntypx) = 10
     Max number of k-points (npk) =  40000
     Max angular momentum in pseudopotentials (lmaxx) =  4
     file Fe.pbe-spn-rrkjus_psl.1.0.0.UPF: wavefunction(s)  3P 3D renormalized
     file Ni.pbe-spn-rrkjus_psl.1.0.0.UPF: wavefunction(s)  3P 3D renormalized
     Found identity + (  0.3333 -0.3333 -0.3333) symmetry
     This is a supercell, fractional translations are disabled

     R & G space division:  proc/nbgrp/npool/nimage =       4
     Subspace diagonalization in iterative solution of the eigenvalue problem:
     one sub-group per band group will be used
     ELPA distributed-memory algorithm (size of sub-group:  2*  2 procs)


     Parallelization info
     --------------------
     sticks:   dense  smooth     PW     G-vecs:    dense   smooth      PW
     Min        1893     944    251               123669    43650    6027
     Max        1894     945    252               123672    43653    6030
     Sum        7573    3777   1005               494679   174605   24111

     Using Slab Decomposition



     bravais-lattice index     =            1
     lattice parameter (alat)  =      16.2480  a.u.
     unit-cell volume          =    4289.4314 (a.u.)^3
     number of atoms/cell      =           54
     number of atomic types    =            2
     number of electrons       =       870.00
     number of Kohn-Sham states=          522
     kinetic-energy cutoff     =      45.0000  Ry
     charge density cutoff     =     360.0000  Ry
     scf convergence threshold =      1.0E-06
     mixing beta               =       0.1000
     number of iterations used =            8  local-TF  mixing
     Exchange-correlation= PBE
                           (   1   4   3   4   0   0   0)

     celldm(1)=  16.248000  celldm(2)=   0.000000  celldm(3)=   0.000000
     celldm(4)=   0.000000  celldm(5)=   0.000000  celldm(6)=   0.000000

     crystal axes: (cart. coord. in units of alat)
               a(1) = (   1.000000   0.000000   0.000000 )  
               a(2) = (   0.000000   1.000000   0.000000 )  
               a(3) = (   0.000000   0.000000   1.000000 )  

     reciprocal axes: (cart. coord. in units 2 pi/alat)
               b(1) = (  1.000000  0.000000  0.000000 )  
               b(2) = (  0.000000  1.000000  0.000000 )  
               b(3) = (  0.000000  0.000000  1.000000 )  


     PseudoPot. # 1 for Fe read from file:
     ../pseudo/Fe.pbe-spn-rrkjus_psl.1.0.0.UPF
     MD5 check sum: 72ea77fed8e64ab3a2ccf2804dfc1862
     Pseudo is Ultrasoft + core correction, Zval = 16.0
     Generated using &quot;atomic&quot; code by A. Dal Corso  v.6.3
     Using radial grid of 1191 points,  6 beta functions with: 
                l(1) =   0
                l(2) =   0
                l(3) =   1
                l(4) =   1
                l(5) =   2
                l(6) =   2
     Q(r) pseudized with 0 coefficients 


     PseudoPot. # 2 for Ni read from file:
     ../pseudo/Ni.pbe-spn-rrkjus_psl.1.0.0.UPF
     MD5 check sum: 8b3fc9aac6dafe35f580d41bb18c3945
     Pseudo is Ultrasoft + core correction, Zval = 18.0
     Generated using &quot;atomic&quot; code by A. Dal Corso  v.6.3
     Using radial grid of 1195 points,  6 beta functions with: 
                l(1) =   0
                l(2) =   0
                l(3) =   1
                l(4) =   1
                l(5) =   2
                l(6) =   2
     Q(r) pseudized with 0 coefficients 


     atomic species   valence    mass     pseudopotential
     Fe               16.00    55.84500     Fe( 1.00)
     Ni               18.00    58.69300     Ni( 1.00)

     Starting magnetic structure 
     atomic species   magnetization
     Fe              0.500
     Ni              0.200

      2 Sym. Ops. (no inversion) found



   Cartesian axes

     site n.     atom                  positions (alat units)
         1        Fe     tau(   1) = (   0.0000000   0.0000000   0.0000000  )
         2        Fe     tau(   2) = (   0.1666670   0.1666670   0.1666670  )
         3        Ni     tau(   3) = (   0.0000000   0.0000000   0.3333330  )
         4        Fe     tau(   4) = (   0.1666670   0.1666670   0.5000000  )
         5        Fe     tau(   5) = (   0.0000000   0.0000000   0.6666670  )
         6        Fe     tau(   6) = (   0.1666670   0.1666670   0.8333330  )
         7        Fe     tau(   7) = (   0.0000000   0.3333330   0.0000000  )
         8        Fe     tau(   8) = (   0.1666670   0.5000000   0.1666670  )
         9        Fe     tau(   9) = (   0.0000000   0.3333330   0.3333330  )
        10        Fe     tau(  10) = (   0.1666670   0.5000000   0.5000000  )
        11        Fe     tau(  11) = (   0.0000000   0.3333330   0.6666670  )
        12        Fe     tau(  12) = (   0.1666670   0.5000000   0.8333330  )
        13        Fe     tau(  13) = (   0.0000000   0.6666670   0.0000000  )
        14        Fe     tau(  14) = (   0.1666670   0.8333330   0.1666670  )
        15        Fe     tau(  15) = (   0.0000000   0.6666670   0.3333330  )
        16        Fe     tau(  16) = (   0.1666670   0.8333330   0.5000000  )
        17        Fe     tau(  17) = (   0.0000000   0.6666670   0.6666670  )
        18        Fe     tau(  18) = (   0.1666670   0.8333330   0.8333330  )
        19        Fe     tau(  19) = (   0.3333330   0.0000000   0.0000000  )
        20        Fe     tau(  20) = (   0.5000000   0.1666670   0.1666670  )
        21        Fe     tau(  21) = (   0.3333330   0.0000000   0.3333330  )
        22        Fe     tau(  22) = (   0.5000000   0.1666670   0.5000000  )
        23        Fe     tau(  23) = (   0.3333330   0.0000000   0.6666670  )
        24        Fe     tau(  24) = (   0.5000000   0.1666670   0.8333330  )
        25        Fe     tau(  25) = (   0.3333330   0.3333330   0.0000000  )
        26        Fe     tau(  26) = (   0.5000000   0.5000000   0.1666670  )
        27        Fe     tau(  27) = (   0.3333330   0.3333330   0.3333330  )
        28        Fe     tau(  28) = (   0.5000000   0.5000000   0.5000000  )
        29        Fe     tau(  29) = (   0.3333330   0.3333330   0.6666670  )
        30        Fe     tau(  30) = (   0.5000000   0.5000000   0.8333330  )
        31        Ni     tau(  31) = (   0.3333330   0.6666670   0.0000000  )
        32        Fe     tau(  32) = (   0.5000000   0.8333330   0.1666670  )
        33        Fe     tau(  33) = (   0.3333330   0.6666670   0.3333330  )
        34        Fe     tau(  34) = (   0.5000000   0.8333330   0.5000000  )
        35        Fe     tau(  35) = (   0.3333330   0.6666670   0.6666670  )
        36        Fe     tau(  36) = (   0.5000000   0.8333330   0.8333330  )
        37        Fe     tau(  37) = (   0.6666670   0.0000000   0.0000000  )
        38        Fe     tau(  38) = (   0.8333330   0.1666670   0.1666670  )
        39        Fe     tau(  39) = (   0.6666670   0.0000000   0.3333330  )
        40        Fe     tau(  40) = (   0.8333330   0.1666670   0.5000000  )
        41        Fe     tau(  41) = (   0.6666670   0.0000000   0.6666670  )
        42        Fe     tau(  42) = (   0.8333330   0.1666670   0.8333330  )
        43        Fe     tau(  43) = (   0.6666670   0.3333330   0.0000000  )
        44        Fe     tau(  44) = (   0.8333330   0.5000000   0.1666670  )
        45        Fe     tau(  45) = (   0.6666670   0.3333330   0.3333330  )
        46        Fe     tau(  46) = (   0.8333330   0.5000000   0.5000000  )
        47        Ni     tau(  47) = (   0.6666670   0.3333330   0.6666670  )
        48        Fe     tau(  48) = (   0.8333330   0.5000000   0.8333330  )
        49        Fe     tau(  49) = (   0.6666670   0.6666670   0.0000000  )
        50        Fe     tau(  50) = (   0.8333330   0.8333330   0.1666670  )
        51        Fe     tau(  51) = (   0.6666670   0.6666670   0.3333330  )
        52        Fe     tau(  52) = (   0.8333330   0.8333330   0.5000000  )
        53        Fe     tau(  53) = (   0.6666670   0.6666670   0.6666670  )
        54        Fe     tau(  54) = (   0.8333330   0.8333330   0.8333330  )

     number of k points=    10  Marzari-Vanderbilt smearing, width (Ry)=  0.0200
                       cart. coord. in units 2pi/alat
        k(    1) = (   0.0000000   0.0000000   0.0000000), wk =   0.0370370
        k(    2) = (   0.0000000   0.0000000   0.3333333), wk =   0.0740741
        k(    3) = (   0.0000000   0.3333333   0.3333333), wk =   0.1481481
        k(    4) = (   0.3333333   0.3333333   0.3333333), wk =   0.1481481
        k(    5) = (   0.3333333   0.0000000   0.0000000), wk =   0.1481481
        k(    6) = (   0.0000000   0.3333333  -0.3333333), wk =   0.1481481
        k(    7) = (   0.3333333  -0.3333333   0.0000000), wk =   0.0740741
        k(    8) = (  -0.3333333  -0.3333333   0.0000000), wk =   0.0740741
        k(    9) = (  -0.3333333   0.3333333  -0.3333333), wk =   0.0740741
        k(   10) = (   0.3333333  -0.3333333  -0.3333333), wk =   0.0740741

     Dense  grid:   494679 G-vectors     FFT dimensions: ( 100, 100, 100)

     Smooth grid:   174605 G-vectors     FFT dimensions: (  72,  72,  72)

     Estimated max dynamical RAM per process >       1.53 GB

     Estimated total dynamical RAM >       6.12 GB

     Check: negative core charge=   -0.000004
     Generating pointlists ...
     new r_m :   0.1191 (alat units)  1.9348 (a.u.) for type    1
     new r_m :   0.1191 (alat units)  1.9348 (a.u.) for type    2

     Initial potential from superposition of free atoms

     starting charge     869.9769, renormalised to     870.0000
     Starting wfcs are  540 randomized atomic wfcs

     total cpu time spent up to now is      119.3 secs

     per-process dynamical memory:  1127.4 Mb

     Self-consistent Calculation

     iteration #  1     ecut=    45.00 Ry     beta= 0.10
     Davidson diagonalization with overlap
     ethr =  1.00E-02,  avg # of iterations =  3.5

     total cpu time spent up to now is      565.8 secs

     total energy              =  -13635.28034819 Ry
     estimated scf accuracy    <      29.77721535 Ry

     total magnetization       =   173.86 Bohr mag/cell
     absolute magnetization    =   179.18 Bohr mag/cell

     iteration #  2     ecut=    45.00 Ry     beta= 0.10
     Davidson diagonalization with overlap
     ethr =  3.42E-03,  avg # of iterations =  1.4

     negative rho (up, down):  0.000E+00 9.495E-03

     total cpu time spent up to now is      901.3 secs

     total energy              =  -13650.09726861 Ry
     estimated scf accuracy    <      24.35530714 Ry

     total magnetization       =   173.72 Bohr mag/cell
     absolute magnetization    =   179.29 Bohr mag/cell

     iteration #  3     ecut=    45.00 Ry     beta= 0.10
     Davidson diagonalization with overlap
     ethr =  2.80E-03,  avg # of iterations =  1.2

     negative rho (up, down):  0.000E+00 1.612E-02

     total cpu time spent up to now is     1226.7 secs

     total energy              =  -13652.89693380 Ry
     estimated scf accuracy    <       6.02450661 Ry

     total magnetization       =   151.25 Bohr mag/cell
     absolute magnetization    =   162.75 Bohr mag/cell

     iteration #  4     ecut=    45.00 Ry     beta= 0.10
     Davidson diagonalization with overlap
     ethr =  6.92E-04,  avg # of iterations =  2.5

     negative rho (up, down):  0.000E+00 1.644E-02

     total cpu time spent up to now is     1590.4 secs

     total energy              =  -13653.34505567 Ry
     estimated scf accuracy    <       6.76914599 Ry

     total magnetization       =   145.51 Bohr mag/cell
     absolute magnetization    =   159.69 Bohr mag/cell

     iteration #  5     ecut=    45.00 Ry     beta= 0.10
     Davidson diagonalization with overlap
     ethr =  6.92E-04,  avg # of iterations =  2.2

     negative rho (up, down):  0.000E+00 2.671E-02

     total cpu time spent up to now is     1955.0 secs

     total energy              =  -13653.73097371 Ry
     estimated scf accuracy    <      20.06749351 Ry

     total magnetization       =   144.79 Bohr mag/cell
     absolute magnetization    =   163.58 Bohr mag/cell

     iteration #  6     ecut=    45.00 Ry     beta= 0.10
     Davidson diagonalization with overlap
     ethr =  6.92E-04,  avg # of iterations =  2.2

     negative rho (up, down):  0.000E+00 2.637E-02

     total cpu time spent up to now is     2326.1 secs

     total energy              =  -13654.13297693 Ry
     estimated scf accuracy    <       3.11588722 Ry

     total magnetization       =   136.96 Bohr mag/cell
     absolute magnetization    =   150.61 Bohr mag/cell

     iteration #  7     ecut=    45.00 Ry     beta= 0.10
     Davidson diagonalization with overlap
     ethr =  3.58E-04,  avg # of iterations =  1.4

     negative rho (up, down):  0.000E+00 2.596E-02

     total cpu time spent up to now is     2670.2 secs

     total energy              =  -13654.03580928 Ry
     estimated scf accuracy    <       3.08020813 Ry

     total magnetization       =   136.94 Bohr mag/cell
     absolute magnetization    =   150.10 Bohr mag/cell

     iteration #  8     ecut=    45.00 Ry     beta= 0.10
     Davidson diagonalization with overlap
     ethr =  3.54E-04,  avg # of iterations =  1.9

     negative rho (up, down):  0.000E+00 2.473E-02

     total cpu time spent up to now is     3026.4 secs

     total energy              =  -13654.07755560 Ry
     estimated scf accuracy    <       0.50321195 Ry

     total magnetization       =   136.80 Bohr mag/cell
     absolute magnetization    =   147.70 Bohr mag/cell

     iteration #  9     ecut=    45.00 Ry     beta= 0.10
     Davidson diagonalization with overlap
     ethr =  5.78E-05,  avg # of iterations =  3.3

     negative rho (up, down):  0.000E+00 2.074E-02

     total cpu time spent up to now is     3381.8 secs

     total energy              =  -13654.10217668 Ry
     estimated scf accuracy    <       0.30253417 Ry

     total magnetization       =   136.57 Bohr mag/cell
     absolute magnetization    =   147.10 Bohr mag/cell

     iteration # 10     ecut=    45.00 Ry     beta= 0.10
     Davidson diagonalization with overlap
     ethr =  3.48E-05,  avg # of iterations =  3.2

     negative rho (up, down):  0.000E+00 1.400E-02

     total cpu time spent up to now is     3754.4 secs

     total energy              =  -13654.13303581 Ry
     estimated scf accuracy    <       0.34975638 Ry

     total magnetization       =   135.82 Bohr mag/cell
     absolute magnetization    =   146.28 Bohr mag/cell

     iteration # 11     ecut=    45.00 Ry     beta= 0.10
     Davidson diagonalization with overlap
     ethr =  3.48E-05,  avg # of iterations =  3.5

     negative rho (up, down):  0.000E+00 1.491E-02

     total cpu time spent up to now is     4170.5 secs

     total energy              =  -13654.18494063 Ry
     estimated scf accuracy    <       0.72457614 Ry

     total magnetization       =   133.11 Bohr mag/cell
     absolute magnetization    =   143.28 Bohr mag/cell

     iteration # 12     ecut=    45.00 Ry     beta= 0.10
     Davidson diagonalization with overlap
     ethr =  3.48E-05,  avg # of iterations =  2.0

     negative rho (up, down):  0.000E+00 1.451E-02

     total cpu time spent up to now is     4531.5 secs

     total energy              =  -13654.21897736 Ry
     estimated scf accuracy    <       0.30827515 Ry

     total magnetization       =   132.70 Bohr mag/cell
     absolute magnetization    =   142.76 Bohr mag/cell

     iteration # 13     ecut=    45.00 Ry     beta= 0.10
     Davidson diagonalization with overlap
     ethr =  3.48E-05,  avg # of iterations =  2.4

     negative rho (up, down):  0.000E+00 1.415E-02

     total cpu time spent up to now is     4899.1 secs

     total energy              =  -13654.23948729 Ry
     estimated scf accuracy    <       0.05867097 Ry

     total magnetization       =   133.07 Bohr mag/cell
     absolute magnetization    =   142.75 Bohr mag/cell

     iteration # 14     ecut=    45.00 Ry     beta= 0.10
     Davidson diagonalization with overlap
     c_bands:  1 eigenvalues not converged
     ethr =  6.74E-06,  avg # of iterations =  3.4

     negative rho (up, down):  0.000E+00 1.032E-02

     total cpu time spent up to now is     5252.7 secs

     total energy              =  -13654.25587662 Ry
     estimated scf accuracy    <       0.10364329 Ry

     total magnetization       =   133.05 Bohr mag/cell
     absolute magnetization    =   142.77 Bohr mag/cell

     iteration # 15     ecut=    45.00 Ry     beta= 0.10
     Davidson diagonalization with overlap
     ethr =  6.74E-06,  avg # of iterations =  3.4

     negative rho (up, down):  0.000E+00 9.133E-03

     total cpu time spent up to now is     5636.6 secs

     total energy              =  -13654.27015377 Ry
     estimated scf accuracy    <       0.04493748 Ry

     total magnetization       =   131.60 Bohr mag/cell
     absolute magnetization    =   140.98 Bohr mag/cell

     iteration # 16     ecut=    45.00 Ry     beta= 0.10
     Davidson diagonalization with overlap
     ethr =  5.17E-06,  avg # of iterations =  1.9

     negative rho (up, down):  0.000E+00 7.922E-03

     total cpu time spent up to now is     5996.2 secs

     total energy              =  -13654.28517114 Ry
     estimated scf accuracy    <       0.02055799 Ry

     total magnetization       =   131.72 Bohr mag/cell
     absolute magnetization    =   140.86 Bohr mag/cell

     iteration # 17     ecut=    45.00 Ry     beta= 0.10
     Davidson diagonalization with overlap
     ethr =  2.36E-06,  avg # of iterations =  2.5

     negative rho (up, down):  0.000E+00 7.112E-03

     total cpu time spent up to now is     6376.2 secs

     total energy              =  -13654.29204933 Ry
     estimated scf accuracy    <       0.07634947 Ry

     total magnetization       =   131.71 Bohr mag/cell
     absolute magnetization    =   140.73 Bohr mag/cell

     iteration # 18     ecut=    45.00 Ry     beta= 0.10
     Davidson diagonalization with overlap
     ethr =  2.36E-06,  avg # of iterations =  2.0

     negative rho (up, down):  0.000E+00 6.030E-03

     total cpu time spent up to now is     6750.0 secs

     total energy              =  -13654.29991043 Ry
     estimated scf accuracy    <       0.00727275 Ry

     total magnetization       =   131.61 Bohr mag/cell
     absolute magnetization    =   140.40 Bohr mag/cell

     iteration # 19     ecut=    45.00 Ry     beta= 0.10
     Davidson diagonalization with overlap
     ethr =  8.36E-07,  avg # of iterations =  3.0

     negative rho (up, down):  0.000E+00 5.899E-03

     total cpu time spent up to now is     7134.5 secs

     total energy              =  -13654.30453418 Ry
     estimated scf accuracy    <       0.00411708 Ry

     total magnetization       =   131.63 Bohr mag/cell
     absolute magnetization    =   140.21 Bohr mag/cell

     iteration # 20     ecut=    45.00 Ry     beta= 0.10
     Davidson diagonalization with overlap
     ethr =  4.73E-07,  avg # of iterations =  2.0

     negative rho (up, down):  0.000E+00 5.799E-03

     total cpu time spent up to now is     7502.0 secs

     total energy              =  -13654.30740740 Ry
     estimated scf accuracy    <       0.01095665 Ry

     total magnetization       =   131.28 Bohr mag/cell
     absolute magnetization    =   139.83 Bohr mag/cell

     iteration # 21     ecut=    45.00 Ry     beta= 0.10
     Davidson diagonalization with overlap
     ethr =  4.73E-07,  avg # of iterations =  2.0

     negative rho (up, down):  0.000E+00 5.714E-03

     total cpu time spent up to now is     7872.4 secs

     total energy              =  -13654.31023559 Ry
     estimated scf accuracy    <       0.00785608 Ry

     total magnetization       =   131.62 Bohr mag/cell
     absolute magnetization    =   140.12 Bohr mag/cell

     iteration # 22     ecut=    45.00 Ry     beta= 0.10
     Davidson diagonalization with overlap
     ethr =  4.73E-07,  avg # of iterations =  2.0

     negative rho (up, down):  0.000E+00 5.977E-03

     total cpu time spent up to now is     8237.0 secs

     total energy              =  -13654.31221276 Ry
     estimated scf accuracy    <       0.00581740 Ry

     total magnetization       =   131.69 Bohr mag/cell
     absolute magnetization    =   140.18 Bohr mag/cell

     iteration # 23     ecut=    45.00 Ry     beta= 0.10
     Davidson diagonalization with overlap
     ethr =  4.73E-07,  avg # of iterations =  1.5

     negative rho (up, down):  0.000E+00 5.774E-03

     total cpu time spent up to now is     8573.6 secs

     total energy              =  -13654.31412266 Ry
     estimated scf accuracy    <       0.00620648 Ry

     total magnetization       =   131.80 Bohr mag/cell
     absolute magnetization    =   140.32 Bohr mag/cell

     iteration # 24     ecut=    45.00 Ry     beta= 0.10
     Davidson diagonalization with overlap
     ethr =  4.73E-07,  avg # of iterations =  1.9

     negative rho (up, down):  0.000E+00 5.872E-03

     total cpu time spent up to now is     8930.8 secs

     total energy              =  -13654.31583921 Ry
     estimated scf accuracy    <       0.00535177 Ry

     total magnetization       =   131.76 Bohr mag/cell
     absolute magnetization    =   140.26 Bohr mag/cell

     iteration # 25     ecut=    45.00 Ry     beta= 0.10
     Davidson diagonalization with overlap
     c_bands:  2 eigenvalues not converged
     c_bands:  2 eigenvalues not converged
     ethr =  4.73E-07,  avg # of iterations =  3.8

     negative rho (up, down):  0.000E+00 5.301E-03

     total cpu time spent up to now is     9308.0 secs

     total energy              =  -13654.31768919 Ry
     estimated scf accuracy    <       0.01425478 Ry

     total magnetization       =   131.47 Bohr mag/cell
     absolute magnetization    =   140.01 Bohr mag/cell

     iteration # 26     ecut=    45.00 Ry     beta= 0.10
     Davidson diagonalization with overlap
     ethr =  4.73E-07,  avg # of iterations =  1.8

     negative rho (up, down):  0.000E+00 5.209E-03

     total cpu time spent up to now is     9657.6 secs

     total energy              =  -13654.31915083 Ry
     estimated scf accuracy    <       0.01416165 Ry

     total magnetization       =   131.50 Bohr mag/cell
     absolute magnetization    =   139.94 Bohr mag/cell

     iteration # 27     ecut=    45.00 Ry     beta= 0.10
     Davidson diagonalization with overlap
     ethr =  4.73E-07,  avg # of iterations =  1.0

     negative rho (up, down):  0.000E+00 4.877E-03

     total cpu time spent up to now is     9970.5 secs

     total energy              =  -13654.32025458 Ry
     estimated scf accuracy    <       0.01651908 Ry

     total magnetization       =   131.41 Bohr mag/cell
     absolute magnetization    =   139.83 Bohr mag/cell

     iteration # 28     ecut=    45.00 Ry     beta= 0.10
     Davidson diagonalization with overlap
     ethr =  4.73E-07,  avg # of iterations =  1.5

     negative rho (up, down):  0.000E+00 5.693E-03

     total cpu time spent up to now is    10306.9 secs

     total energy              =  -13654.32003602 Ry
     estimated scf accuracy    <       0.02138262 Ry

     total magnetization       =   131.43 Bohr mag/cell
     absolute magnetization    =   139.79 Bohr mag/cell

     iteration # 29     ecut=    45.00 Ry     beta= 0.10
     Davidson diagonalization with overlap
     ethr =  4.73E-07,  avg # of iterations =  2.0

     negative rho (up, down):  0.000E+00 5.568E-03

     total cpu time spent up to now is    10673.2 secs

     total energy              =  -13654.32063822 Ry
     estimated scf accuracy    <       0.01524413 Ry

     total magnetization       =   131.49 Bohr mag/cell
     absolute magnetization    =   139.96 Bohr mag/cell

     iteration # 30     ecut=    45.00 Ry     beta= 0.10
     Davidson diagonalization with overlap
     ethr =  4.73E-07,  avg # of iterations =  1.9

     negative rho (up, down):  0.000E+00 5.618E-03

     total cpu time spent up to now is    11030.6 secs

     total energy              =  -13654.32069184 Ry
     estimated scf accuracy    <       0.02256288 Ry

     total magnetization       =   131.35 Bohr mag/cell
     absolute magnetization    =   139.85 Bohr mag/cell

     iteration # 31     ecut=    45.00 Ry     beta= 0.10
     Davidson diagonalization with overlap
     ethr =  4.73E-07,  avg # of iterations =  2.0

     negative rho (up, down):  0.000E+00 5.952E-03

     total cpu time spent up to now is    11397.2 secs

     total energy              =  -13654.31948279 Ry
     estimated scf accuracy    <       0.01480534 Ry

     total magnetization       =   131.42 Bohr mag/cell
     absolute magnetization    =   139.88 Bohr mag/cell

     iteration # 32     ecut=    45.00 Ry     beta= 0.10
     Davidson diagonalization with overlap
     ethr =  4.73E-07,  avg # of iterations =  1.9

     negative rho (up, down):  0.000E+00 5.291E-03

     total cpu time spent up to now is    11758.0 secs

     total energy              =  -13654.32097903 Ry
     estimated scf accuracy    <       0.00833375 Ry

     total magnetization       =   131.84 Bohr mag/cell
     absolute magnetization    =   140.33 Bohr mag/cell

     iteration # 33     ecut=    45.00 Ry     beta= 0.10
     Davidson diagonalization with overlap
     ethr =  4.73E-07,  avg # of iterations =  2.0

     negative rho (up, down):  0.000E+00 6.410E-03

     total cpu time spent up to now is    12136.7 secs

     total energy              =  -13654.31670854 Ry
     estimated scf accuracy    <       0.02652335 Ry

     total magnetization       =   131.23 Bohr mag/cell
     absolute magnetization    =   139.71 Bohr mag/cell

     iteration # 34     ecut=    45.00 Ry     beta= 0.10
     Davidson diagonalization with overlap
     ethr =  4.73E-07,  avg # of iterations =  2.6

     negative rho (up, down):  0.000E+00 5.303E-03

     total cpu time spent up to now is    12531.7 secs

     total energy              =  -13654.31951603 Ry
     estimated scf accuracy    <       0.02094317 Ry

     total magnetization       =   132.33 Bohr mag/cell
     absolute magnetization    =   140.87 Bohr mag/cell

     iteration # 35     ecut=    45.00 Ry     beta= 0.10
     Davidson diagonalization with overlap
     ethr =  4.73E-07,  avg # of iterations =  2.7

     negative rho (up, down):  0.000E+00 4.814E-03

     total cpu time spent up to now is    12922.1 secs

     total energy              =  -13654.32092717 Ry
     estimated scf accuracy    <       0.00802743 Ry

     total magnetization       =   131.20 Bohr mag/cell
     absolute magnetization    =   139.68 Bohr mag/cell

     iteration # 36     ecut=    45.00 Ry     beta= 0.10
     Davidson diagonalization with overlap
     ethr =  4.73E-07,  avg # of iterations =  2.1

     negative rho (up, down):  0.000E+00 4.686E-03

     total cpu time spent up to now is    13317.5 secs

     total energy              =  -13654.32189215 Ry
     estimated scf accuracy    <       0.00964229 Ry

     total magnetization       =   131.01 Bohr mag/cell
     absolute magnetization    =   139.37 Bohr mag/cell

     iteration # 37     ecut=    45.00 Ry     beta= 0.10
     Davidson diagonalization with overlap
     ethr =  4.73E-07,  avg # of iterations =  2.0

     negative rho (up, down):  0.000E+00 5.273E-03

     total cpu time spent up to now is    13690.6 secs

     total energy              =  -13654.32121842 Ry
     estimated scf accuracy    <       0.00503380 Ry

     total magnetization       =   131.02 Bohr mag/cell
     absolute magnetization    =   139.32 Bohr mag/cell

     iteration # 38     ecut=    45.00 Ry     beta= 0.10
     Davidson diagonalization with overlap
     ethr =  4.73E-07,  avg # of iterations =  2.0

     negative rho (up, down):  0.000E+00 5.031E-03

     total cpu time spent up to now is    14057.3 secs

     total energy              =  -13654.32191160 Ry
     estimated scf accuracy    <       0.00332110 Ry

     total magnetization       =   131.04 Bohr mag/cell
     absolute magnetization    =   139.47 Bohr mag/cell

     iteration # 39     ecut=    45.00 Ry     beta= 0.10
     Davidson diagonalization with overlap
     ethr =  3.82E-07,  avg # of iterations =  1.5

     negative rho (up, down):  0.000E+00 5.018E-03

     total cpu time spent up to now is    14393.8 secs

     total energy              =  -13654.32205252 Ry
     estimated scf accuracy    <       0.00217829 Ry

     total magnetization       =   130.93 Bohr mag/cell
     absolute magnetization    =   139.33 Bohr mag/cell

     iteration # 40     ecut=    45.00 Ry     beta= 0.10
     Davidson diagonalization with overlap
     ethr =  2.50E-07,  avg # of iterations =  1.0

     negative rho (up, down):  0.000E+00 5.020E-03

     total cpu time spent up to now is    14706.5 secs

     total energy              =  -13654.32212537 Ry
     estimated scf accuracy    <       0.00321539 Ry

     total magnetization       =   130.96 Bohr mag/cell
     absolute magnetization    =   139.35 Bohr mag/cell

     iteration # 41     ecut=    45.00 Ry     beta= 0.10
     Davidson diagonalization with overlap
     ethr =  2.50E-07,  avg # of iterations =  1.2

     negative rho (up, down):  0.000E+00 5.081E-03

     total cpu time spent up to now is    15030.8 secs

     total energy              =  -13654.32219720 Ry
     estimated scf accuracy    <       0.00234138 Ry

     total magnetization       =   130.90 Bohr mag/cell
     absolute magnetization    =   139.30 Bohr mag/cell

     iteration # 42     ecut=    45.00 Ry     beta= 0.10
     Davidson diagonalization with overlap
     ethr =  2.50E-07,  avg # of iterations =  1.1

     negative rho (up, down):  0.000E+00 5.164E-03

     total cpu time spent up to now is    15350.4 secs

     total energy              =  -13654.32245849 Ry
     estimated scf accuracy    <       0.00103740 Ry

     total magnetization       =   130.88 Bohr mag/cell
     absolute magnetization    =   139.28 Bohr mag/cell

     iteration # 43     ecut=    45.00 Ry     beta= 0.10
     Davidson diagonalization with overlap
     ethr =  1.19E-07,  avg # of iterations =  2.0

     negative rho (up, down):  0.000E+00 5.080E-03

     total cpu time spent up to now is    15718.2 secs

     total energy              =  -13654.32257181 Ry
     estimated scf accuracy    <       0.00087028 Ry

     total magnetization       =   130.72 Bohr mag/cell
     absolute magnetization    =   139.07 Bohr mag/cell

     iteration # 44     ecut=    45.00 Ry     beta= 0.10
     Davidson diagonalization with overlap
     ethr =  1.00E-07,  avg # of iterations =  2.0

     negative rho (up, down):  0.000E+00 4.907E-03

     total cpu time spent up to now is    16089.8 secs

     total energy              =  -13654.32275363 Ry
     estimated scf accuracy    <       0.00255096 Ry

     total magnetization       =   130.76 Bohr mag/cell
     absolute magnetization    =   139.10 Bohr mag/cell

     iteration # 45     ecut=    45.00 Ry     beta= 0.10
     Davidson diagonalization with overlap
     ethr =  1.00E-07,  avg # of iterations =  2.6

     negative rho (up, down):  0.000E+00 4.881E-03

     total cpu time spent up to now is    16488.7 secs

     total energy              =  -13654.32306311 Ry
     estimated scf accuracy    <       0.00069931 Ry

     total magnetization       =   130.31 Bohr mag/cell
     absolute magnetization    =   138.59 Bohr mag/cell

     iteration # 46     ecut=    45.00 Ry     beta= 0.10
     Davidson diagonalization with overlap
     ethr =  8.04E-08,  avg # of iterations =  1.9

     negative rho (up, down):  0.000E+00 4.820E-03

     total cpu time spent up to now is    16842.8 secs

     total energy              =  -13654.32312754 Ry
     estimated scf accuracy    <       0.00155990 Ry

     total magnetization       =   130.32 Bohr mag/cell
     absolute magnetization    =   138.58 Bohr mag/cell

     iteration # 47     ecut=    45.00 Ry     beta= 0.10
     Davidson diagonalization with overlap
     ethr =  8.04E-08,  avg # of iterations =  2.0

     negative rho (up, down):  0.000E+00 4.795E-03

     total cpu time spent up to now is    17208.3 secs

     total energy              =  -13654.32326354 Ry
     estimated scf accuracy    <       0.00228061 Ry

     total magnetization       =   130.24 Bohr mag/cell
     absolute magnetization    =   138.48 Bohr mag/cell

     iteration # 48     ecut=    45.00 Ry     beta= 0.10
     Davidson diagonalization with overlap
     c_bands:  2 eigenvalues not converged
     ethr =  8.04E-08,  avg # of iterations =  3.5

     negative rho (up, down):  0.000E+00 4.972E-03

     total cpu time spent up to now is    17590.1 secs

     total energy              =  -13654.32311480 Ry
     estimated scf accuracy    <       0.00246395 Ry

     total magnetization       =   130.04 Bohr mag/cell
     absolute magnetization    =   138.22 Bohr mag/cell

     iteration # 49     ecut=    45.00 Ry     beta= 0.10
     Davidson diagonalization with overlap
     ethr =  8.04E-08,  avg # of iterations =  2.0

     negative rho (up, down):  0.000E+00 4.983E-03

     total cpu time spent up to now is    17969.5 secs

     total energy              =  -13654.32321705 Ry
     estimated scf accuracy    <       0.00021590 Ry

     total magnetization       =   130.05 Bohr mag/cell
     absolute magnetization    =   138.24 Bohr mag/cell

     iteration # 50     ecut=    45.00 Ry     beta= 0.10
     Davidson diagonalization with overlap
     ethr =  2.48E-08,  avg # of iterations =  1.9

     negative rho (up, down):  0.000E+00 4.989E-03

     total cpu time spent up to now is    18315.4 secs

     total energy              =  -13654.32330066 Ry
     estimated scf accuracy    <       0.00014970 Ry

     total magnetization       =   129.98 Bohr mag/cell
     absolute magnetization    =   138.16 Bohr mag/cell

     iteration # 51     ecut=    45.00 Ry     beta= 0.10
     Davidson diagonalization with overlap
     ethr =  1.72E-08,  avg # of iterations =  2.0

     negative rho (up, down):  0.000E+00 4.965E-03

     total cpu time spent up to now is    18680.5 secs

     total energy              =  -13654.32331836 Ry
     estimated scf accuracy    <       0.00022708 Ry

     total magnetization       =   130.05 Bohr mag/cell
     absolute magnetization    =   138.21 Bohr mag/cell

     iteration # 52     ecut=    45.00 Ry     beta= 0.10
     Davidson diagonalization with overlap
     ethr =  1.72E-08,  avg # of iterations =  1.3

     negative rho (up, down):  0.000E+00 4.979E-03

     total cpu time spent up to now is    19006.1 secs

     total energy              =  -13654.32330310 Ry
     estimated scf accuracy    <       0.00034138 Ry

     total magnetization       =   130.06 Bohr mag/cell
     absolute magnetization    =   138.22 Bohr mag/cell

     iteration # 53     ecut=    45.00 Ry     beta= 0.10
     Davidson diagonalization with overlap
     ethr =  1.72E-08,  avg # of iterations =  1.9

     negative rho (up, down):  0.000E+00 4.974E-03

     total cpu time spent up to now is    19365.7 secs

     total energy              =  -13654.32331034 Ry
     estimated scf accuracy    <       0.00032395 Ry

     total magnetization       =   130.00 Bohr mag/cell
     absolute magnetization    =   138.16 Bohr mag/cell

     iteration # 54     ecut=    45.00 Ry     beta= 0.10
     Davidson diagonalization with overlap
     ethr =  1.72E-08,  avg # of iterations =  2.0

     negative rho (up, down):  0.000E+00 5.006E-03

     total cpu time spent up to now is    19737.4 secs

     total energy              =  -13654.32333904 Ry
     estimated scf accuracy    <       0.00036788 Ry

     total magnetization       =   130.01 Bohr mag/cell
     absolute magnetization    =   138.16 Bohr mag/cell

     iteration # 55     ecut=    45.00 Ry     beta= 0.10
     Davidson diagonalization with overlap
     ethr =  1.72E-08,  avg # of iterations =  2.0

     negative rho (up, down):  0.000E+00 4.964E-03

     total cpu time spent up to now is    20104.3 secs

     total energy              =  -13654.32338645 Ry
     estimated scf accuracy    <       0.00010663 Ry

     total magnetization       =   130.04 Bohr mag/cell
     absolute magnetization    =   138.18 Bohr mag/cell

     iteration # 56     ecut=    45.00 Ry     beta= 0.10
     Davidson diagonalization with overlap
     ethr =  1.23E-08,  avg # of iterations =  1.9

     negative rho (up, down):  0.000E+00 4.958E-03

     total cpu time spent up to now is    20462.4 secs

     total energy              =  -13654.32341526 Ry
     estimated scf accuracy    <       0.00007987 Ry

     total magnetization       =   130.02 Bohr mag/cell
     absolute magnetization    =   138.15 Bohr mag/cell

     iteration # 57     ecut=    45.00 Ry     beta= 0.10
     Davidson diagonalization with overlap
     ethr =  9.18E-09,  avg # of iterations =  2.0

     negative rho (up, down):  0.000E+00 4.946E-03

     total cpu time spent up to now is    20826.9 secs

     total energy              =  -13654.32342442 Ry
     estimated scf accuracy    <       0.00016020 Ry

     total magnetization       =   130.03 Bohr mag/cell
     absolute magnetization    =   138.14 Bohr mag/cell

     iteration # 58     ecut=    45.00 Ry     beta= 0.10
     Davidson diagonalization with overlap
     ethr =  9.18E-09,  avg # of iterations =  2.0

     negative rho (up, down):  0.000E+00 4.948E-03

     total cpu time spent up to now is    21192.0 secs

     total energy              =  -13654.32342576 Ry
     estimated scf accuracy    <       0.00009867 Ry

     total magnetization       =   130.00 Bohr mag/cell
     absolute magnetization    =   138.11 Bohr mag/cell

     iteration # 59     ecut=    45.00 Ry     beta= 0.10
     Davidson diagonalization with overlap
     ethr =  9.18E-09,  avg # of iterations =  1.9

     negative rho (up, down):  0.000E+00 4.952E-03

     total cpu time spent up to now is    21547.1 secs

     total energy              =  -13654.32341680 Ry
     estimated scf accuracy    <       0.00014593 Ry

     total magnetization       =   130.00 Bohr mag/cell
     absolute magnetization    =   138.12 Bohr mag/cell

     iteration # 60     ecut=    45.00 Ry     beta= 0.10
     Davidson diagonalization with overlap
     ethr =  9.18E-09,  avg # of iterations =  2.0

     negative rho (up, down):  0.000E+00 4.950E-03

     total cpu time spent up to now is    21911.0 secs

     total energy              =  -13654.32343090 Ry
     estimated scf accuracy    <       0.00011004 Ry

     total magnetization       =   130.02 Bohr mag/cell
     absolute magnetization    =   138.13 Bohr mag/cell

     iteration # 61     ecut=    45.00 Ry     beta= 0.10
     Davidson diagonalization with overlap
     ethr =  9.18E-09,  avg # of iterations =  1.0

     negative rho (up, down):  0.000E+00 4.947E-03

     total cpu time spent up to now is    22224.6 secs

     total energy              =  -13654.32343267 Ry
     estimated scf accuracy    <       0.00010462 Ry

     total magnetization       =   130.03 Bohr mag/cell
     absolute magnetization    =   138.14 Bohr mag/cell

     iteration # 62     ecut=    45.00 Ry     beta= 0.10
     Davidson diagonalization with overlap
     ethr =  9.18E-09,  avg # of iterations =  1.0

     negative rho (up, down):  0.000E+00 4.940E-03

     total cpu time spent up to now is    22537.9 secs

     total energy              =  -13654.32343020 Ry
     estimated scf accuracy    <       0.00011032 Ry

     total magnetization       =   130.04 Bohr mag/cell
     absolute magnetization    =   138.15 Bohr mag/cell

     iteration # 63     ecut=    45.00 Ry     beta= 0.10
     Davidson diagonalization with overlap
     ethr =  9.18E-09,  avg # of iterations =  1.0

     negative rho (up, down):  0.000E+00 4.958E-03

     total cpu time spent up to now is    22850.5 secs

     total energy              =  -13654.32345330 Ry
     estimated scf accuracy    <       0.00011293 Ry

     total magnetization       =   130.01 Bohr mag/cell
     absolute magnetization    =   138.13 Bohr mag/cell

     iteration # 64     ecut=    45.00 Ry     beta= 0.10
     Davidson diagonalization with overlap
     ethr =  9.18E-09,  avg # of iterations =  1.1

     negative rho (up, down):  0.000E+00 4.948E-03

     total cpu time spent up to now is    23167.7 secs

     total energy              =  -13654.32345414 Ry
     estimated scf accuracy    <       0.00011700 Ry

     total magnetization       =   130.01 Bohr mag/cell
     absolute magnetization    =   138.12 Bohr mag/cell

     iteration # 65     ecut=    45.00 Ry     beta= 0.10
     Davidson diagonalization with overlap
     ethr =  9.18E-09,  avg # of iterations =  1.0

     negative rho (up, down):  0.000E+00 4.953E-03

     total cpu time spent up to now is    23480.2 secs

     total energy              =  -13654.32347505 Ry
     estimated scf accuracy    <       0.00015462 Ry

     total magnetization       =   130.02 Bohr mag/cell
     absolute magnetization    =   138.12 Bohr mag/cell

     iteration # 66     ecut=    45.00 Ry     beta= 0.10
     Davidson diagonalization with overlap
     ethr =  9.18E-09,  avg # of iterations =  2.0

     negative rho (up, down):  0.000E+00 4.945E-03

     total cpu time spent up to now is    23854.5 secs

     total energy              =  -13654.32345345 Ry
     estimated scf accuracy    <       0.00037379 Ry

     total magnetization       =   129.98 Bohr mag/cell
     absolute magnetization    =   138.07 Bohr mag/cell

     iteration # 67     ecut=    45.00 Ry     beta= 0.10
     Davidson diagonalization with overlap
     ethr =  9.18E-09,  avg # of iterations =  2.0

     negative rho (up, down):  0.000E+00 4.954E-03

     total cpu time spent up to now is    24228.9 secs

     total energy              =  -13654.32345091 Ry
     estimated scf accuracy    <       0.00012610 Ry

     total magnetization       =   130.02 Bohr mag/cell
     absolute magnetization    =   138.12 Bohr mag/cell

     iteration # 68     ecut=    45.00 Ry     beta= 0.10
     Davidson diagonalization with overlap
     ethr =  9.18E-09,  avg # of iterations =  1.0

     negative rho (up, down):  0.000E+00 4.912E-03

     total cpu time spent up to now is    24541.4 secs

     total energy              =  -13654.32348064 Ry
     estimated scf accuracy    <       0.00012305 Ry

     total magnetization       =   130.04 Bohr mag/cell
     absolute magnetization    =   138.14 Bohr mag/cell

     iteration # 69     ecut=    45.00 Ry     beta= 0.10
     Davidson diagonalization with overlap
     ethr =  9.18E-09,  avg # of iterations =  1.5

     negative rho (up, down):  0.000E+00 4.900E-03

     total cpu time spent up to now is    24877.8 secs

     total energy              =  -13654.32349163 Ry
     estimated scf accuracy    <       0.00012028 Ry

     total magnetization       =   130.00 Bohr mag/cell
     absolute magnetization    =   138.09 Bohr mag/cell

     iteration # 70     ecut=    45.00 Ry     beta= 0.10
     Davidson diagonalization with overlap
     ethr =  9.18E-09,  avg # of iterations =  1.0

     negative rho (up, down):  0.000E+00 4.897E-03

     total cpu time spent up to now is    25190.4 secs

     total energy              =  -13654.32349867 Ry
     estimated scf accuracy    <       0.00013636 Ry

     total magnetization       =   129.97 Bohr mag/cell
     absolute magnetization    =   138.05 Bohr mag/cell

     iteration # 71     ecut=    45.00 Ry     beta= 0.10
     Davidson diagonalization with overlap
     ethr =  9.18E-09,  avg # of iterations =  2.0

     negative rho (up, down):  0.000E+00 4.940E-03

     total cpu time spent up to now is    25561.8 secs

     total energy              =  -13654.32348366 Ry
     estimated scf accuracy    <       0.00026475 Ry

     total magnetization       =   129.99 Bohr mag/cell
     absolute magnetization    =   138.07 Bohr mag/cell

     iteration # 72     ecut=    45.00 Ry     beta= 0.10
     Davidson diagonalization with overlap
     ethr =  9.18E-09,  avg # of iterations =  2.0

     negative rho (up, down):  0.000E+00 4.872E-03

     total cpu time spent up to now is    25930.7 secs

     total energy              =  -13654.32349824 Ry
     estimated scf accuracy    <       0.00026905 Ry

     total magnetization       =   129.97 Bohr mag/cell
     absolute magnetization    =   138.05 Bohr mag/cell

     iteration # 73     ecut=    45.00 Ry     beta= 0.10
     Davidson diagonalization with overlap
     ethr =  9.18E-09,  avg # of iterations =  2.0

     negative rho (up, down):  0.000E+00 4.842E-03

     total cpu time spent up to now is    26304.6 secs

     total energy              =  -13654.32351629 Ry
     estimated scf accuracy    <       0.00009845 Ry

     total magnetization       =   129.96 Bohr mag/cell
     absolute magnetization    =   138.02 Bohr mag/cell

     iteration # 74     ecut=    45.00 Ry     beta= 0.10
     Davidson diagonalization with overlap
     ethr =  9.18E-09,  avg # of iterations =  2.1

     negative rho (up, down):  0.000E+00 4.850E-03

     total cpu time spent up to now is    26693.6 secs

     total energy              =  -13654.32349253 Ry
     estimated scf accuracy    <       0.00058076 Ry

     total magnetization       =   129.95 Bohr mag/cell
     absolute magnetization    =   137.99 Bohr mag/cell

     iteration # 75     ecut=    45.00 Ry     beta= 0.10
     Davidson diagonalization with overlap
     ethr =  9.18E-09,  avg # of iterations =  2.0

     negative rho (up, down):  0.000E+00 4.849E-03

     total cpu time spent up to now is    27080.8 secs

     total energy              =  -13654.32350736 Ry
     estimated scf accuracy    <       0.00005717 Ry

     total magnetization       =   129.96 Bohr mag/cell
     absolute magnetization    =   138.02 Bohr mag/cell

     iteration # 76     ecut=    45.00 Ry     beta= 0.10
     Davidson diagonalization with overlap
     ethr =  6.57E-09,  avg # of iterations =  1.0

     negative rho (up, down):  0.000E+00 4.849E-03

     total cpu time spent up to now is    27394.0 secs

     total energy              =  -13654.32350927 Ry
     estimated scf accuracy    <       0.00005782 Ry

     total magnetization       =   129.96 Bohr mag/cell
     absolute magnetization    =   138.01 Bohr mag/cell

     iteration # 77     ecut=    45.00 Ry     beta= 0.10
     Davidson diagonalization with overlap
     ethr =  6.57E-09,  avg # of iterations =  1.0

     negative rho (up, down):  0.000E+00 4.849E-03

     total cpu time spent up to now is    27706.3 secs

     total energy              =  -13654.32351532 Ry
     estimated scf accuracy    <       0.00005566 Ry

     total magnetization       =   129.96 Bohr mag/cell
     absolute magnetization    =   138.01 Bohr mag/cell

     iteration # 78     ecut=    45.00 Ry     beta= 0.10
     Davidson diagonalization with overlap
     ethr =  6.40E-09,  avg # of iterations =  2.0

     negative rho (up, down):  0.000E+00 4.728E-03

     total cpu time spent up to now is    28095.3 secs

     total energy              =  -13654.32350492 Ry
     estimated scf accuracy    <       0.00036181 Ry

     total magnetization       =   129.95 Bohr mag/cell
     absolute magnetization    =   138.00 Bohr mag/cell

     iteration # 79     ecut=    45.00 Ry     beta= 0.10
     Davidson diagonalization with overlap
     ethr =  6.40E-09,  avg # of iterations =  3.1

     negative rho (up, down):  0.000E+00 4.691E-03

     total cpu time spent up to now is    28514.5 secs

     total energy              =  -13654.32352114 Ry
     estimated scf accuracy    <       0.00003377 Ry

     total magnetization       =   129.90 Bohr mag/cell
     absolute magnetization    =   137.92 Bohr mag/cell

     iteration # 80     ecut=    45.00 Ry     beta= 0.10
     Davidson diagonalization with overlap
     ethr =  3.88E-09,  avg # of iterations =  2.7

     negative rho (up, down):  0.000E+00 4.684E-03

     total cpu time spent up to now is    28900.0 secs

     total energy              =  -13654.32352254 Ry
     estimated scf accuracy    <       0.00004102 Ry

     total magnetization       =   129.88 Bohr mag/cell
     absolute magnetization    =   137.89 Bohr mag/cell

     iteration # 81     ecut=    45.00 Ry     beta= 0.10
     Davidson diagonalization with overlap
     ethr =  3.88E-09,  avg # of iterations =  2.0

     negative rho (up, down):  0.000E+00 4.683E-03

     total cpu time spent up to now is    29286.7 secs

     total energy              =  -13654.32352754 Ry
     estimated scf accuracy    <       0.00003844 Ry

     total magnetization       =   129.87 Bohr mag/cell
     absolute magnetization    =   137.86 Bohr mag/cell

     iteration # 82     ecut=    45.00 Ry     beta= 0.10
     Davidson diagonalization with overlap
     ethr =  3.88E-09,  avg # of iterations =  1.0

     negative rho (up, down):  0.000E+00 4.667E-03

     total cpu time spent up to now is    29599.4 secs

     total energy              =  -13654.32352626 Ry
     estimated scf accuracy    <       0.00005053 Ry

     total magnetization       =   129.87 Bohr mag/cell
     absolute magnetization    =   137.87 Bohr mag/cell

     iteration # 83     ecut=    45.00 Ry     beta= 0.10
     Davidson diagonalization with overlap
     ethr =  3.88E-09,  avg # of iterations =  2.0

     negative rho (up, down):  0.000E+00 4.675E-03

     total cpu time spent up to now is    29977.5 secs

     total energy              =  -13654.32353111 Ry
     estimated scf accuracy    <       0.00003562 Ry

     total magnetization       =   129.90 Bohr mag/cell
     absolute magnetization    =   137.90 Bohr mag/cell

     iteration # 84     ecut=    45.00 Ry     beta= 0.10
     Davidson diagonalization with overlap
     ethr =  3.88E-09,  avg # of iterations =  2.0

     negative rho (up, down):  0.000E+00 4.669E-03

     total cpu time spent up to now is    30340.7 secs

     total energy              =  -13654.32353313 Ry
     estimated scf accuracy    <       0.00001542 Ry

     total magnetization       =   129.91 Bohr mag/cell
     absolute magnetization    =   137.91 Bohr mag/cell

     iteration # 85     ecut=    45.00 Ry     beta= 0.10
     Davidson diagonalization with overlap
     ethr =  1.77E-09,  avg # of iterations =  1.8

     negative rho (up, down):  0.000E+00 4.668E-03

     total cpu time spent up to now is    30692.6 secs

     total energy              =  -13654.32353310 Ry
     estimated scf accuracy    <       0.00002151 Ry

     total magnetization       =   129.91 Bohr mag/cell
     absolute magnetization    =   137.92 Bohr mag/cell

     iteration # 86     ecut=    45.00 Ry     beta= 0.10
     Davidson diagonalization with overlap
     ethr =  1.77E-09,  avg # of iterations =  1.6

     negative rho (up, down):  0.000E+00 4.666E-03

     total cpu time spent up to now is    31034.7 secs

     total energy              =  -13654.32353475 Ry
     estimated scf accuracy    <       0.00001881 Ry

     total magnetization       =   129.90 Bohr mag/cell
     absolute magnetization    =   137.90 Bohr mag/cell

     iteration # 87     ecut=    45.00 Ry     beta= 0.10
     Davidson diagonalization with overlap
     ethr =  1.77E-09,  avg # of iterations =  1.0

     negative rho (up, down):  0.000E+00 4.684E-03

     total cpu time spent up to now is    31347.1 secs

     total energy              =  -13654.32353696 Ry
     estimated scf accuracy    <       0.00001605 Ry

     total magnetization       =   129.90 Bohr mag/cell
     absolute magnetization    =   137.90 Bohr mag/cell

     iteration # 88     ecut=    45.00 Ry     beta= 0.10
     Davidson diagonalization with overlap
     ethr =  1.77E-09,  avg # of iterations =  1.0

     negative rho (up, down):  0.000E+00 4.676E-03

     total cpu time spent up to now is    31659.6 secs

     total energy              =  -13654.32353588 Ry
     estimated scf accuracy    <       0.00002063 Ry

     total magnetization       =   129.91 Bohr mag/cell
     absolute magnetization    =   137.92 Bohr mag/cell

     iteration # 89     ecut=    45.00 Ry     beta= 0.10
     Davidson diagonalization with overlap
     ethr =  1.77E-09,  avg # of iterations =  2.0

     negative rho (up, down):  0.000E+00 4.676E-03

     total cpu time spent up to now is    32028.5 secs

     total energy              =  -13654.32353765 Ry
     estimated scf accuracy    <       0.00003085 Ry

     total magnetization       =   129.91 Bohr mag/cell
     absolute magnetization    =   137.92 Bohr mag/cell

     iteration # 90     ecut=    45.00 Ry     beta= 0.10
     Davidson diagonalization with overlap
     ethr =  1.77E-09,  avg # of iterations =  2.0

     negative rho (up, down):  0.000E+00 4.692E-03

     total cpu time spent up to now is    32402.8 secs

     total energy              =  -13654.32353699 Ry
     estimated scf accuracy    <       0.00003762 Ry

     total magnetization       =   129.91 Bohr mag/cell
     absolute magnetization    =   137.92 Bohr mag/cell

     iteration # 91     ecut=    45.00 Ry     beta= 0.10
     Davidson diagonalization with overlap
     ethr =  1.77E-09,  avg # of iterations =  2.0

     negative rho (up, down):  0.000E+00 4.679E-03

     total cpu time spent up to now is    32771.1 secs

     total energy              =  -13654.32353549 Ry
     estimated scf accuracy    <       0.00001265 Ry

     total magnetization       =   129.90 Bohr mag/cell
     absolute magnetization    =   137.90 Bohr mag/cell

     iteration # 92     ecut=    45.00 Ry     beta= 0.10
     Davidson diagonalization with overlap
     ethr =  1.45E-09,  avg # of iterations =  2.0

     negative rho (up, down):  0.000E+00 4.689E-03

     total cpu time spent up to now is    33156.2 secs

     total energy              =  -13654.32353126 Ry
     estimated scf accuracy    <       0.00003723 Ry

     total magnetization       =   129.88 Bohr mag/cell
     absolute magnetization    =   137.88 Bohr mag/cell

     iteration # 93     ecut=    45.00 Ry     beta= 0.10
     Davidson diagonalization with overlap
     ethr =  1.45E-09,  avg # of iterations =  2.5

     negative rho (up, down):  0.000E+00 4.689E-03

     total cpu time spent up to now is    33571.8 secs

     total energy              =  -13654.32353824 Ry
     estimated scf accuracy    <       0.00000807 Ry

     total magnetization       =   129.92 Bohr mag/cell
     absolute magnetization    =   137.93 Bohr mag/cell

     iteration # 94     ecut=    45.00 Ry     beta= 0.10
     Davidson diagonalization with overlap
     ethr =  9.28E-10,  avg # of iterations =  1.6

     negative rho (up, down):  0.000E+00 4.688E-03

     total cpu time spent up to now is    33917.0 secs

     total energy              =  -13654.32353841 Ry
     estimated scf accuracy    <       0.00000695 Ry

     total magnetization       =   129.92 Bohr mag/cell
     absolute magnetization    =   137.94 Bohr mag/cell

     iteration # 95     ecut=    45.00 Ry     beta= 0.10
     Davidson diagonalization with overlap
     ethr =  7.99E-10,  avg # of iterations =  1.0

     negative rho (up, down):  0.000E+00 4.688E-03

     total cpu time spent up to now is    34229.3 secs

     total energy              =  -13654.32353916 Ry
     estimated scf accuracy    <       0.00000531 Ry

     total magnetization       =   129.92 Bohr mag/cell
     absolute magnetization    =   137.94 Bohr mag/cell

     iteration # 96     ecut=    45.00 Ry     beta= 0.10
     Davidson diagonalization with overlap
     ethr =  6.10E-10,  avg # of iterations =  1.8

     negative rho (up, down):  0.000E+00 4.678E-03

     total cpu time spent up to now is    34581.5 secs

     total energy              =  -13654.32353896 Ry
     estimated scf accuracy    <       0.00000577 Ry

     total magnetization       =   129.91 Bohr mag/cell
     absolute magnetization    =   137.93 Bohr mag/cell

     iteration # 97     ecut=    45.00 Ry     beta= 0.10
     Davidson diagonalization with overlap
     ethr =  6.10E-10,  avg # of iterations =  1.3

     negative rho (up, down):  0.000E+00 4.671E-03

     total cpu time spent up to now is    34907.8 secs

     total energy              =  -13654.32353944 Ry
     estimated scf accuracy    <       0.00000399 Ry

     total magnetization       =   129.91 Bohr mag/cell
     absolute magnetization    =   137.93 Bohr mag/cell

     iteration # 98     ecut=    45.00 Ry     beta= 0.10
     Davidson diagonalization with overlap
     ethr =  4.59E-10,  avg # of iterations =  2.0

     negative rho (up, down):  0.000E+00 4.670E-03

     total cpu time spent up to now is    35275.0 secs

     total energy              =  -13654.32353965 Ry
     estimated scf accuracy    <       0.00000452 Ry

     total magnetization       =   129.91 Bohr mag/cell
     absolute magnetization    =   137.92 Bohr mag/cell

     iteration # 99     ecut=    45.00 Ry     beta= 0.10
     Davidson diagonalization with overlap
     ethr =  4.59E-10,  avg # of iterations =  1.0

     negative rho (up, down):  0.000E+00 4.671E-03

     total cpu time spent up to now is    35587.2 secs

     total energy              =  -13654.32353991 Ry
     estimated scf accuracy    <       0.00000371 Ry

     total magnetization       =   129.91 Bohr mag/cell
     absolute magnetization    =   137.92 Bohr mag/cell

     iteration #100     ecut=    45.00 Ry     beta= 0.10
     Davidson diagonalization with overlap
     ethr =  4.26E-10,  avg # of iterations =  1.6

     negative rho (up, down):  0.000E+00 4.667E-03

     total cpu time spent up to now is    35925.8 secs

     total energy              =  -13654.32354079 Ry
     estimated scf accuracy    <       0.00000528 Ry

     total magnetization       =   129.91 Bohr mag/cell
     absolute magnetization    =   137.92 Bohr mag/cell

     iteration #101     ecut=    45.00 Ry     beta= 0.10
     Davidson diagonalization with overlap
     ethr =  4.26E-10,  avg # of iterations =  2.0

     negative rho (up, down):  0.000E+00 4.665E-03

     total cpu time spent up to now is    36301.4 secs

     total energy              =  -13654.32354091 Ry
     estimated scf accuracy    <       0.00000704 Ry

     total magnetization       =   129.91 Bohr mag/cell
     absolute magnetization    =   137.92 Bohr mag/cell

     iteration #102     ecut=    45.00 Ry     beta= 0.10
     Davidson diagonalization with overlap
     ethr =  4.26E-10,  avg # of iterations =  2.0

     negative rho (up, down):  0.000E+00 4.667E-03

     total cpu time spent up to now is    36665.1 secs

     total energy              =  -13654.32354029 Ry
     estimated scf accuracy    <       0.00000623 Ry

     total magnetization       =   129.92 Bohr mag/cell
     absolute magnetization    =   137.93 Bohr mag/cell

     iteration #103     ecut=    45.00 Ry     beta= 0.10
     Davidson diagonalization with overlap
     ethr =  4.26E-10,  avg # of iterations =  2.0

     negative rho (up, down):  0.000E+00 4.665E-03

     total cpu time spent up to now is    37028.2 secs

     total energy              =  -13654.32354144 Ry
     estimated scf accuracy    <       0.00000667 Ry

     total magnetization       =   129.91 Bohr mag/cell
     absolute magnetization    =   137.92 Bohr mag/cell

     iteration #104     ecut=    45.00 Ry     beta= 0.10
     Davidson diagonalization with overlap
     ethr =  4.26E-10,  avg # of iterations =  2.0

     negative rho (up, down):  0.000E+00 4.663E-03

     total cpu time spent up to now is    37435.7 secs

     total energy              =  -13654.32354207 Ry
     estimated scf accuracy    <       0.00000435 Ry

     total magnetization       =   129.90 Bohr mag/cell
     absolute magnetization    =   137.91 Bohr mag/cell

     iteration #105     ecut=    45.00 Ry     beta= 0.10
     Davidson diagonalization with overlap
     ethr =  4.26E-10,  avg # of iterations =  1.0

     negative rho (up, down):  0.000E+00 4.664E-03

     total cpu time spent up to now is    37747.7 secs

     total energy              =  -13654.32354237 Ry
     estimated scf accuracy    <       0.00000485 Ry

     total magnetization       =   129.89 Bohr mag/cell
     absolute magnetization    =   137.90 Bohr mag/cell

     iteration #106     ecut=    45.00 Ry     beta= 0.10
     Davidson diagonalization with overlap
     ethr =  4.26E-10,  avg # of iterations =  2.0

     negative rho (up, down):  0.000E+00 4.677E-03

     total cpu time spent up to now is    38114.0 secs

     total energy              =  -13654.32354199 Ry
     estimated scf accuracy    <       0.00000915 Ry

     total magnetization       =   129.89 Bohr mag/cell
     absolute magnetization    =   137.90 Bohr mag/cell

     iteration #107     ecut=    45.00 Ry     beta= 0.10
     Davidson diagonalization with overlap
     ethr =  4.26E-10,  avg # of iterations =  2.0

     negative rho (up, down):  0.000E+00 4.660E-03

     total cpu time spent up to now is    38511.0 secs

     total energy              =  -13654.32354247 Ry
     estimated scf accuracy    <       0.00000681 Ry

     total magnetization       =   129.91 Bohr mag/cell
     absolute magnetization    =   137.92 Bohr mag/cell

     iteration #108     ecut=    45.00 Ry     beta= 0.10
     Davidson diagonalization with overlap
     ethr =  4.26E-10,  avg # of iterations =  1.8

     negative rho (up, down):  0.000E+00 4.656E-03

     total cpu time spent up to now is    38867.9 secs

     total energy              =  -13654.32354344 Ry
     estimated scf accuracy    <       0.00000445 Ry

     total magnetization       =   129.90 Bohr mag/cell
     absolute magnetization    =   137.91 Bohr mag/cell

     iteration #109     ecut=    45.00 Ry     beta= 0.10
     Davidson diagonalization with overlap
     ethr =  4.26E-10,  avg # of iterations =  2.0

     negative rho (up, down):  0.000E+00 4.654E-03

     total cpu time spent up to now is    39251.6 secs

     total energy              =  -13654.32354195 Ry
     estimated scf accuracy    <       0.00001269 Ry

     total magnetization       =   129.90 Bohr mag/cell
     absolute magnetization    =   137.91 Bohr mag/cell

     iteration #110     ecut=    45.00 Ry     beta= 0.10
     Davidson diagonalization with overlap
     ethr =  4.26E-10,  avg # of iterations =  2.0

     negative rho (up, down):  0.000E+00 4.667E-03

     total cpu time spent up to now is    39635.9 secs

     total energy              =  -13654.32354274 Ry
     estimated scf accuracy    <       0.00000912 Ry

     total magnetization       =   129.90 Bohr mag/cell
     absolute magnetization    =   137.91 Bohr mag/cell

     iteration #111     ecut=    45.00 Ry     beta= 0.10
     Davidson diagonalization with overlap
     ethr =  4.26E-10,  avg # of iterations =  2.0

     negative rho (up, down):  0.000E+00 4.667E-03

     total cpu time spent up to now is    40006.1 secs

     total energy              =  -13654.32354385 Ry
     estimated scf accuracy    <       0.00000270 Ry

     total magnetization       =   129.90 Bohr mag/cell
     absolute magnetization    =   137.92 Bohr mag/cell

     iteration #112     ecut=    45.00 Ry     beta= 0.10
     Davidson diagonalization with overlap
     ethr =  3.10E-10,  avg # of iterations =  2.0

     negative rho (up, down):  0.000E+00 4.672E-03

     total cpu time spent up to now is    40382.1 secs

     total energy              =  -13654.32354404 Ry
     estimated scf accuracy    <       0.00000356 Ry

     total magnetization       =   129.90 Bohr mag/cell
     absolute magnetization    =   137.92 Bohr mag/cell

     iteration #113     ecut=    45.00 Ry     beta= 0.10
     Davidson diagonalization with overlap
     ethr =  3.10E-10,  avg # of iterations =  2.0

     negative rho (up, down):  0.000E+00 4.671E-03

     total cpu time spent up to now is    40745.1 secs

     total energy              =  -13654.32354427 Ry
     estimated scf accuracy    <       0.00000290 Ry

     total magnetization       =   129.91 Bohr mag/cell
     absolute magnetization    =   137.92 Bohr mag/cell

     iteration #114     ecut=    45.00 Ry     beta= 0.10
     Davidson diagonalization with overlap
     ethr =  3.10E-10,  avg # of iterations =  1.0

     negative rho (up, down):  0.000E+00 4.670E-03

     total cpu time spent up to now is    41058.0 secs

     total energy              =  -13654.32354312 Ry
     estimated scf accuracy    <       0.00000266 Ry

     total magnetization       =   129.91 Bohr mag/cell
     absolute magnetization    =   137.92 Bohr mag/cell

     iteration #115     ecut=    45.00 Ry     beta= 0.10
     Davidson diagonalization with overlap
     ethr =  3.05E-10,  avg # of iterations =  1.8

     negative rho (up, down):  0.000E+00 4.682E-03

     total cpu time spent up to now is    41414.0 secs

     total energy              =  -13654.32354406 Ry
     estimated scf accuracy    <       0.00000449 Ry

     total magnetization       =   129.90 Bohr mag/cell
     absolute magnetization    =   137.91 Bohr mag/cell

     iteration #116     ecut=    45.00 Ry     beta= 0.10
     Davidson diagonalization with overlap
     ethr =  3.05E-10,  avg # of iterations =  2.5

     negative rho (up, down):  0.000E+00 4.685E-03

     total cpu time spent up to now is    41816.7 secs

     total energy              =  -13654.32354423 Ry
     estimated scf accuracy    <       0.00001746 Ry

     total magnetization       =   129.92 Bohr mag/cell
     absolute magnetization    =   137.94 Bohr mag/cell

     iteration #117     ecut=    45.00 Ry     beta= 0.10
     Davidson diagonalization with overlap
     ethr =  3.05E-10,  avg # of iterations =  2.0

     negative rho (up, down):  0.000E+00 4.680E-03

     total cpu time spent up to now is    42197.4 secs

     total energy              =  -13654.32354457 Ry
     estimated scf accuracy    <       0.00001430 Ry

     total magnetization       =   129.92 Bohr mag/cell
     absolute magnetization    =   137.94 Bohr mag/cell

     iteration #118     ecut=    45.00 Ry     beta= 0.10
     Davidson diagonalization with overlap
     ethr =  3.05E-10,  avg # of iterations =  2.0

     negative rho (up, down):  0.000E+00 4.685E-03

     total cpu time spent up to now is    42576.5 secs

     total energy              =  -13654.32354479 Ry
     estimated scf accuracy    <       0.00001025 Ry

     total magnetization       =   129.93 Bohr mag/cell
     absolute magnetization    =   137.95 Bohr mag/cell

     iteration #119     ecut=    45.00 Ry     beta= 0.10
     Davidson diagonalization with overlap
     ethr =  3.05E-10,  avg # of iterations =  2.0

     negative rho (up, down):  0.000E+00 4.673E-03

     total cpu time spent up to now is    42938.5 secs

     total energy              =  -13654.32354455 Ry
     estimated scf accuracy    <       0.00001997 Ry

     total magnetization       =   129.92 Bohr mag/cell
     absolute magnetization    =   137.94 Bohr mag/cell

     iteration #120     ecut=    45.00 Ry     beta= 0.10
     Davidson diagonalization with overlap
     ethr =  3.05E-10,  avg # of iterations =  2.0

     negative rho (up, down):  0.000E+00 4.669E-03

     total cpu time spent up to now is    43303.7 secs

     total energy              =  -13654.32354533 Ry
     estimated scf accuracy    <       0.00000898 Ry

     total magnetization       =   129.92 Bohr mag/cell
     absolute magnetization    =   137.94 Bohr mag/cell

     iteration #121     ecut=    45.00 Ry     beta= 0.10
     Davidson diagonalization with overlap
     ethr =  3.05E-10,  avg # of iterations =  2.0

     negative rho (up, down):  0.000E+00 4.679E-03

     total cpu time spent up to now is    43697.1 secs

     total energy              =  -13654.32354485 Ry
     estimated scf accuracy    <       0.00000924 Ry

     total magnetization       =   129.92 Bohr mag/cell
     absolute magnetization    =   137.94 Bohr mag/cell

     iteration #122     ecut=    45.00 Ry     beta= 0.10
     Davidson diagonalization with overlap
     ethr =  3.05E-10,  avg # of iterations =  2.0

     negative rho (up, down):  0.000E+00 4.667E-03

     total cpu time spent up to now is    44091.5 secs

     total energy              =  -13654.32354388 Ry
     estimated scf accuracy    <       0.00002724 Ry

     total magnetization       =   129.92 Bohr mag/cell
     absolute magnetization    =   137.94 Bohr mag/cell

     iteration #123     ecut=    45.00 Ry     beta= 0.10
     Davidson diagonalization with overlap
     ethr =  3.05E-10,  avg # of iterations =  2.0

     negative rho (up, down):  0.000E+00 4.664E-03

     total cpu time spent up to now is    44475.8 secs

     total energy              =  -13654.32354331 Ry
     estimated scf accuracy    <       0.00000408 Ry

     total magnetization       =   129.92 Bohr mag/cell
     absolute magnetization    =   137.94 Bohr mag/cell

     iteration #124     ecut=    45.00 Ry     beta= 0.10
     Davidson diagonalization with overlap
     ethr =  3.05E-10,  avg # of iterations =  1.8

     negative rho (up, down):  0.000E+00 4.667E-03

     total cpu time spent up to now is    44830.8 secs

     total energy              =  -13654.32354408 Ry
     estimated scf accuracy    <       0.00000326 Ry

     total magnetization       =   129.92 Bohr mag/cell
     absolute magnetization    =   137.94 Bohr mag/cell

     iteration #125     ecut=    45.00 Ry     beta= 0.10
     Davidson diagonalization with overlap
     ethr =  3.05E-10,  avg # of iterations =  2.0

     negative rho (up, down):  0.000E+00 4.668E-03

     total cpu time spent up to now is    45202.0 secs

     total energy              =  -13654.32354366 Ry
     estimated scf accuracy    <       0.00000329 Ry

     total magnetization       =   129.93 Bohr mag/cell
     absolute magnetization    =   137.95 Bohr mag/cell

     iteration #126     ecut=    45.00 Ry     beta= 0.10
     Davidson diagonalization with overlap
     ethr =  3.05E-10,  avg # of iterations =  1.5

     negative rho (up, down):  0.000E+00 4.667E-03

     total cpu time spent up to now is    45538.4 secs

     total energy              =  -13654.32354407 Ry
     estimated scf accuracy    <       0.00000226 Ry

     total magnetization       =   129.92 Bohr mag/cell
     absolute magnetization    =   137.94 Bohr mag/cell

     iteration #127     ecut=    45.00 Ry     beta= 0.10
     Davidson diagonalization with overlap
     ethr =  2.60E-10,  avg # of iterations =  1.1

     negative rho (up, down):  0.000E+00 4.664E-03

     total cpu time spent up to now is    45854.0 secs

     total energy              =  -13654.32354424 Ry
     estimated scf accuracy    <       0.00000256 Ry

     total magnetization       =   129.92 Bohr mag/cell
     absolute magnetization    =   137.94 Bohr mag/cell

     iteration #128     ecut=    45.00 Ry     beta= 0.10
     Davidson diagonalization with overlap
     ethr =  2.60E-10,  avg # of iterations =  1.5

     negative rho (up, down):  0.000E+00 4.673E-03

     total cpu time spent up to now is    46191.1 secs

     total energy              =  -13654.32354345 Ry
     estimated scf accuracy    <       0.00000231 Ry

     total magnetization       =   129.92 Bohr mag/cell
     absolute magnetization    =   137.93 Bohr mag/cell

     iteration #129     ecut=    45.00 Ry     beta= 0.10
     Davidson diagonalization with overlap
     ethr =  2.60E-10,  avg # of iterations =  2.0

     negative rho (up, down):  0.000E+00 4.676E-03

     total cpu time spent up to now is    46573.9 secs

     total energy              =  -13654.32354400 Ry
     estimated scf accuracy    <       0.00000195 Ry

     total magnetization       =   129.93 Bohr mag/cell
     absolute magnetization    =   137.95 Bohr mag/cell

     iteration #130     ecut=    45.00 Ry     beta= 0.10
     Davidson diagonalization with overlap
     ethr =  2.25E-10,  avg # of iterations =  2.0

     negative rho (up, down):  0.000E+00 4.674E-03

     total cpu time spent up to now is    46936.0 secs

     total energy              =  -13654.32354383 Ry
     estimated scf accuracy    <       0.00000413 Ry

     total magnetization       =   129.92 Bohr mag/cell
     absolute magnetization    =   137.94 Bohr mag/cell

     iteration #131     ecut=    45.00 Ry     beta= 0.10
     Davidson diagonalization with overlap
     ethr =  2.25E-10,  avg # of iterations =  2.0

     negative rho (up, down):  0.000E+00 4.681E-03

     total cpu time spent up to now is    47297.8 secs

     total energy              =  -13654.32354380 Ry
     estimated scf accuracy    <       0.00000164 Ry

     total magnetization       =   129.93 Bohr mag/cell
     absolute magnetization    =   137.95 Bohr mag/cell

     iteration #132     ecut=    45.00 Ry     beta= 0.10
     Davidson diagonalization with overlap
     ethr =  1.88E-10,  avg # of iterations =  2.0

     negative rho (up, down):  0.000E+00 4.677E-03

     total cpu time spent up to now is    47660.3 secs

     total energy              =  -13654.32354398 Ry
     estimated scf accuracy    <       0.00000246 Ry

     total magnetization       =   129.93 Bohr mag/cell
     absolute magnetization    =   137.95 Bohr mag/cell

     iteration #133     ecut=    45.00 Ry     beta= 0.10
     Davidson diagonalization with overlap
     ethr =  1.88E-10,  avg # of iterations =  1.1

     negative rho (up, down):  0.000E+00 4.677E-03

     total cpu time spent up to now is    47977.5 secs

     total energy              =  -13654.32354409 Ry
     estimated scf accuracy    <       0.00000197 Ry

     total magnetization       =   129.93 Bohr mag/cell
     absolute magnetization    =   137.95 Bohr mag/cell

     iteration #134     ecut=    45.00 Ry     beta= 0.10
     Davidson diagonalization with overlap
     ethr =  1.88E-10,  avg # of iterations =  1.0

     negative rho (up, down):  0.000E+00 4.677E-03

     total cpu time spent up to now is    48288.4 secs

     total energy              =  -13654.32354418 Ry
     estimated scf accuracy    <       0.00000196 Ry

     total magnetization       =   129.93 Bohr mag/cell
     absolute magnetization    =   137.95 Bohr mag/cell

     iteration #135     ecut=    45.00 Ry     beta= 0.10
     Davidson diagonalization with overlap
     ethr =  1.88E-10,  avg # of iterations =  1.0

     negative rho (up, down):  0.000E+00 4.678E-03

     total cpu time spent up to now is    48599.3 secs

     total energy              =  -13654.32354401 Ry
     estimated scf accuracy    <       0.00000205 Ry

     total magnetization       =   129.93 Bohr mag/cell
     absolute magnetization    =   137.95 Bohr mag/cell

     iteration #136     ecut=    45.00 Ry     beta= 0.10
     Davidson diagonalization with overlap
     ethr =  1.88E-10,  avg # of iterations =  1.1

     negative rho (up, down):  0.000E+00 4.676E-03

     total cpu time spent up to now is    48913.1 secs

     total energy              =  -13654.32354409 Ry
     estimated scf accuracy    <       0.00000176 Ry

     total magnetization       =   129.93 Bohr mag/cell
     absolute magnetization    =   137.95 Bohr mag/cell

     iteration #137     ecut=    45.00 Ry     beta= 0.10
     Davidson diagonalization with overlap
     ethr =  1.88E-10,  avg # of iterations =  1.1

     negative rho (up, down):  0.000E+00 4.671E-03

     total cpu time spent up to now is    49226.3 secs

     total energy              =  -13654.32354426 Ry
     estimated scf accuracy    <       0.00000196 Ry

     total magnetization       =   129.93 Bohr mag/cell
     absolute magnetization    =   137.95 Bohr mag/cell

     iteration #138     ecut=    45.00 Ry     beta= 0.10
     Davidson diagonalization with overlap
     ethr =  1.88E-10,  avg # of iterations =  1.9

     negative rho (up, down):  0.000E+00 4.679E-03

     total cpu time spent up to now is    49587.7 secs

     total energy              =  -13654.32354394 Ry
     estimated scf accuracy    <       0.00000233 Ry

     total magnetization       =   129.92 Bohr mag/cell
     absolute magnetization    =   137.94 Bohr mag/cell

     iteration #139     ecut=    45.00 Ry     beta= 0.10
     Davidson diagonalization with overlap
     ethr =  1.88E-10,  avg # of iterations =  1.9

     negative rho (up, down):  0.000E+00 4.680E-03

     total cpu time spent up to now is    49956.1 secs

     total energy              =  -13654.32354415 Ry
     estimated scf accuracy    <       0.00000246 Ry

     total magnetization       =   129.93 Bohr mag/cell
     absolute magnetization    =   137.95 Bohr mag/cell

     iteration #140     ecut=    45.00 Ry     beta= 0.10
     Davidson diagonalization with overlap
     ethr =  1.88E-10,  avg # of iterations =  1.6

     negative rho (up, down):  0.000E+00 4.682E-03

     total cpu time spent up to now is    50295.7 secs

     total energy              =  -13654.32354409 Ry
     estimated scf accuracy    <       0.00000199 Ry

     total magnetization       =   129.93 Bohr mag/cell
     absolute magnetization    =   137.95 Bohr mag/cell

     iteration #141     ecut=    45.00 Ry     beta= 0.10
     Davidson diagonalization with overlap
     ethr =  1.88E-10,  avg # of iterations =  1.0

     negative rho (up, down):  0.000E+00 4.685E-03

     total cpu time spent up to now is    50606.4 secs

     total energy              =  -13654.32354375 Ry
     estimated scf accuracy    <       0.00000173 Ry

     total magnetization       =   129.93 Bohr mag/cell
     absolute magnetization    =   137.95 Bohr mag/cell

     iteration #142     ecut=    45.00 Ry     beta= 0.10
     Davidson diagonalization with overlap
     ethr =  1.88E-10,  avg # of iterations =  1.5

     negative rho (up, down):  0.000E+00 4.680E-03

     total cpu time spent up to now is    50940.9 secs

     total energy              =  -13654.32354425 Ry
     estimated scf accuracy    <       0.00000203 Ry

     total magnetization       =   129.93 Bohr mag/cell
     absolute magnetization    =   137.95 Bohr mag/cell

     iteration #143     ecut=    45.00 Ry     beta= 0.10
     Davidson diagonalization with overlap
     ethr =  1.88E-10,  avg # of iterations =  1.8

     negative rho (up, down):  0.000E+00 4.681E-03

     total cpu time spent up to now is    51297.6 secs

     total energy              =  -13654.32354424 Ry
     estimated scf accuracy    <       0.00000162 Ry

     total magnetization       =   129.93 Bohr mag/cell
     absolute magnetization    =   137.95 Bohr mag/cell

     iteration #144     ecut=    45.00 Ry     beta= 0.10
     Davidson diagonalization with overlap
     ethr =  1.86E-10,  avg # of iterations =  1.0

     negative rho (up, down):  0.000E+00 4.679E-03

     total cpu time spent up to now is    51606.5 secs

     total energy              =  -13654.32354460 Ry
     estimated scf accuracy    <       0.00000194 Ry

     total magnetization       =   129.92 Bohr mag/cell
     absolute magnetization    =   137.95 Bohr mag/cell

     iteration #145     ecut=    45.00 Ry     beta= 0.10
     Davidson diagonalization with overlap
     ethr =  1.86E-10,  avg # of iterations =  1.5

     negative rho (up, down):  0.000E+00 4.679E-03

     total cpu time spent up to now is    51939.4 secs

     total energy              =  -13654.32354572 Ry
     estimated scf accuracy    <       0.00000147 Ry

     total magnetization       =   129.93 Bohr mag/cell
     absolute magnetization    =   137.95 Bohr mag/cell

     iteration #146     ecut=    45.00 Ry     beta= 0.10
     Davidson diagonalization with overlap
     ethr =  1.69E-10,  avg # of iterations =  2.2

     negative rho (up, down):  0.000E+00 4.681E-03

     total cpu time spent up to now is    52337.7 secs

     total energy              =  -13654.32354646 Ry
     estimated scf accuracy    <       0.00000151 Ry

     total magnetization       =   129.94 Bohr mag/cell
     absolute magnetization    =   137.96 Bohr mag/cell

     iteration #147     ecut=    45.00 Ry     beta= 0.10
     Davidson diagonalization with overlap
     ethr =  1.69E-10,  avg # of iterations =  2.2

     negative rho (up, down):  0.000E+00 4.677E-03

     total cpu time spent up to now is    52718.4 secs

     total energy              =  -13654.32354617 Ry
     estimated scf accuracy    <       0.00000163 Ry

     total magnetization       =   129.94 Bohr mag/cell
     absolute magnetization    =   137.96 Bohr mag/cell

     iteration #148     ecut=    45.00 Ry     beta= 0.10
     Davidson diagonalization with overlap
     ethr =  1.69E-10,  avg # of iterations =  1.9

     negative rho (up, down):  0.000E+00 4.666E-03

     total cpu time spent up to now is    53082.9 secs

     total energy              =  -13654.32354632 Ry
     estimated scf accuracy    <       0.00000181 Ry

     total magnetization       =   129.94 Bohr mag/cell
     absolute magnetization    =   137.96 Bohr mag/cell

     iteration #149     ecut=    45.00 Ry     beta= 0.10
     Davidson diagonalization with overlap
     ethr =  1.69E-10,  avg # of iterations =  3.2

     negative rho (up, down):  0.000E+00 4.670E-03

     total cpu time spent up to now is    53499.3 secs

     total energy              =  -13654.32354668 Ry
     estimated scf accuracy    <       0.00000296 Ry

     total magnetization       =   129.93 Bohr mag/cell
     absolute magnetization    =   137.94 Bohr mag/cell

     iteration #150     ecut=    45.00 Ry     beta= 0.10
     Davidson diagonalization with overlap
     ethr =  1.69E-10,  avg # of iterations =  2.0

     negative rho (up, down):  0.000E+00 4.675E-03

     total cpu time spent up to now is    53856.6 secs

     total energy              =  -13654.32354646 Ry
     estimated scf accuracy    <       0.00000368 Ry

     total magnetization       =   129.93 Bohr mag/cell
     absolute magnetization    =   137.95 Bohr mag/cell

     iteration #151     ecut=    45.00 Ry     beta= 0.10
     Davidson diagonalization with overlap
     ethr =  1.69E-10,  avg # of iterations =  2.0

     negative rho (up, down):  0.000E+00 4.677E-03

     total cpu time spent up to now is    54218.0 secs

     total energy              =  -13654.32354581 Ry
     estimated scf accuracy    <       0.00000354 Ry

     total magnetization       =   129.93 Bohr mag/cell
     absolute magnetization    =   137.95 Bohr mag/cell

     iteration #152     ecut=    45.00 Ry     beta= 0.10
     Davidson diagonalization with overlap
     ethr =  1.69E-10,  avg # of iterations =  2.0

     negative rho (up, down):  0.000E+00 4.677E-03

     total cpu time spent up to now is    54593.9 secs

     total energy              =  -13654.32354615 Ry
     estimated scf accuracy    <       0.00000440 Ry

     total magnetization       =   129.93 Bohr mag/cell
     absolute magnetization    =   137.95 Bohr mag/cell

     iteration #153     ecut=    45.00 Ry     beta= 0.10
     Davidson diagonalization with overlap
     ethr =  1.69E-10,  avg # of iterations =  2.0

     negative rho (up, down):  0.000E+00 4.675E-03

     total cpu time spent up to now is    54976.8 secs

     total energy              =  -13654.32354685 Ry
     estimated scf accuracy    <       0.00000181 Ry

     total magnetization       =   129.94 Bohr mag/cell
     absolute magnetization    =   137.96 Bohr mag/cell

     iteration #154     ecut=    45.00 Ry     beta= 0.10
     Davidson diagonalization with overlap
     ethr =  1.69E-10,  avg # of iterations =  2.0

     negative rho (up, down):  0.000E+00 4.674E-03

     total cpu time spent up to now is    55375.5 secs

     total energy              =  -13654.32354606 Ry
     estimated scf accuracy    <       0.00000425 Ry

     total magnetization       =   129.93 Bohr mag/cell
     absolute magnetization    =   137.95 Bohr mag/cell

     iteration #155     ecut=    45.00 Ry     beta= 0.10
     Davidson diagonalization with overlap
     ethr =  1.69E-10,  avg # of iterations =  2.0

     negative rho (up, down):  0.000E+00 4.680E-03

     total cpu time spent up to now is    55766.1 secs

     total energy              =  -13654.32354659 Ry
     estimated scf accuracy    <       0.00000377 Ry

     total magnetization       =   129.92 Bohr mag/cell
     absolute magnetization    =   137.94 Bohr mag/cell

     iteration #156     ecut=    45.00 Ry     beta= 0.10
     Davidson diagonalization with overlap
     ethr =  1.69E-10,  avg # of iterations =  3.5

     negative rho (up, down):  0.000E+00 4.675E-03

     total cpu time spent up to now is    56197.4 secs

     total energy              =  -13654.32354546 Ry
     estimated scf accuracy    <       0.00000906 Ry

     total magnetization       =   129.94 Bohr mag/cell
     absolute magnetization    =   137.97 Bohr mag/cell

     iteration #157     ecut=    45.00 Ry     beta= 0.10
     Davidson diagonalization with overlap
     ethr =  1.69E-10,  avg # of iterations =  2.6

     negative rho (up, down):  0.000E+00 4.675E-03

     total cpu time spent up to now is    56608.3 secs

     total energy              =  -13654.32354632 Ry
     estimated scf accuracy    <       0.00000147 Ry

     total magnetization       =   129.93 Bohr mag/cell
     absolute magnetization    =   137.95 Bohr mag/cell

     iteration #158     ecut=    45.00 Ry     beta= 0.10
     Davidson diagonalization with overlap
     ethr =  1.69E-10,  avg # of iterations =  1.0

     negative rho (up, down):  0.000E+00 4.670E-03

     total cpu time spent up to now is    56915.8 secs

     total energy              =  -13654.32354702 Ry
     estimated scf accuracy    <       0.00000123 Ry

     total magnetization       =   129.93 Bohr mag/cell
     absolute magnetization    =   137.95 Bohr mag/cell

     iteration #159     ecut=    45.00 Ry     beta= 0.10
     Davidson diagonalization with overlap
     ethr =  1.41E-10,  avg # of iterations =  2.0

     negative rho (up, down):  0.000E+00 4.672E-03

     total cpu time spent up to now is    57308.9 secs

     total energy              =  -13654.32354708 Ry
     estimated scf accuracy    <       0.00000136 Ry

     total magnetization       =   129.93 Bohr mag/cell
     absolute magnetization    =   137.95 Bohr mag/cell

     iteration #160     ecut=    45.00 Ry     beta= 0.10
     Davidson diagonalization with overlap
     ethr =  1.41E-10,  avg # of iterations =  1.7

     negative rho (up, down):  0.000E+00 4.670E-03

     total cpu time spent up to now is    57651.5 secs

     total energy              =  -13654.32354747 Ry
     estimated scf accuracy    <       0.00000138 Ry

     total magnetization       =   129.93 Bohr mag/cell
     absolute magnetization    =   137.95 Bohr mag/cell

     iteration #161     ecut=    45.00 Ry     beta= 0.10
     Davidson diagonalization with overlap
     ethr =  1.41E-10,  avg # of iterations =  2.0

     negative rho (up, down):  0.000E+00 4.670E-03

     total cpu time spent up to now is    58025.6 secs

     total energy              =  -13654.32354760 Ry
     estimated scf accuracy    <       0.00000137 Ry

     total magnetization       =   129.93 Bohr mag/cell
     absolute magnetization    =   137.95 Bohr mag/cell

     iteration #162     ecut=    45.00 Ry     beta= 0.10
     Davidson diagonalization with overlap
     ethr =  1.41E-10,  avg # of iterations =  1.4

     negative rho (up, down):  0.000E+00 4.675E-03

     total cpu time spent up to now is    58349.3 secs

     total energy              =  -13654.32354746 Ry
     estimated scf accuracy    <       0.00000170 Ry

     total magnetization       =   129.93 Bohr mag/cell
     absolute magnetization    =   137.95 Bohr mag/cell

     iteration #163     ecut=    45.00 Ry     beta= 0.10
     Davidson diagonalization with overlap
     ethr =  1.41E-10,  avg # of iterations =  2.0

     negative rho (up, down):  0.000E+00 4.674E-03

     total cpu time spent up to now is    58708.2 secs

     total energy              =  -13654.32354754 Ry
     estimated scf accuracy    <       0.00000151 Ry

     total magnetization       =   129.93 Bohr mag/cell
     absolute magnetization    =   137.95 Bohr mag/cell

     iteration #164     ecut=    45.00 Ry     beta= 0.10
     Davidson diagonalization with overlap
     ethr =  1.41E-10,  avg # of iterations =  1.0

     negative rho (up, down):  0.000E+00 4.673E-03

     total cpu time spent up to now is    59015.6 secs

     total energy              =  -13654.32354778 Ry
     estimated scf accuracy    <       0.00000125 Ry

     total magnetization       =   129.93 Bohr mag/cell
     absolute magnetization    =   137.95 Bohr mag/cell

     iteration #165     ecut=    45.00 Ry     beta= 0.10
     Davidson diagonalization with overlap
     ethr =  1.41E-10,  avg # of iterations =  2.0

     negative rho (up, down):  0.000E+00 4.673E-03

     total cpu time spent up to now is    59392.7 secs

     total energy              =  -13654.32354790 Ry
     estimated scf accuracy    <       0.00000107 Ry

     total magnetization       =   129.93 Bohr mag/cell
     absolute magnetization    =   137.95 Bohr mag/cell

     iteration #166     ecut=    45.00 Ry     beta= 0.10
     Davidson diagonalization with overlap
     ethr =  1.23E-10,  avg # of iterations =  1.0

     negative rho (up, down):  0.000E+00 4.671E-03

     total cpu time spent up to now is    59700.1 secs

     total energy              =  -13654.32354800 Ry
     estimated scf accuracy    <       0.00000120 Ry

     total magnetization       =   129.93 Bohr mag/cell
     absolute magnetization    =   137.95 Bohr mag/cell

     iteration #167     ecut=    45.00 Ry     beta= 0.10
     Davidson diagonalization with overlap
     ethr =  1.23E-10,  avg # of iterations =  2.0

     negative rho (up, down):  0.000E+00 4.671E-03

     total cpu time spent up to now is    60070.3 secs

     total energy              =  -13654.32354811 Ry
     estimated scf accuracy    <       0.00000115 Ry

     total magnetization       =   129.92 Bohr mag/cell
     absolute magnetization    =   137.94 Bohr mag/cell

     iteration #168     ecut=    45.00 Ry     beta= 0.10
     Davidson diagonalization with overlap
     ethr =  1.23E-10,  avg # of iterations =  1.2

     negative rho (up, down):  0.000E+00 4.668E-03

     total cpu time spent up to now is    60389.0 secs

     total energy              =  -13654.32354819 Ry
     estimated scf accuracy    <       0.00000110 Ry

     total magnetization       =   129.92 Bohr mag/cell
     absolute magnetization    =   137.94 Bohr mag/cell

     iteration #169     ecut=    45.00 Ry     beta= 0.10
     Davidson diagonalization with overlap
     ethr =  1.23E-10,  avg # of iterations =  1.7

     negative rho (up, down):  0.000E+00 4.672E-03

     total cpu time spent up to now is    60731.7 secs

     total energy              =  -13654.32354764 Ry
     estimated scf accuracy    <       0.00000102 Ry

     total magnetization       =   129.92 Bohr mag/cell
     absolute magnetization    =   137.94 Bohr mag/cell

     iteration #170     ecut=    45.00 Ry     beta= 0.10
     Davidson diagonalization with overlap
     ethr =  1.17E-10,  avg # of iterations =  2.0

     negative rho (up, down):  0.000E+00 4.672E-03

     total cpu time spent up to now is    61121.2 secs

     total energy              =  -13654.32354790 Ry
     estimated scf accuracy    <       0.00000161 Ry

     total magnetization       =   129.92 Bohr mag/cell
     absolute magnetization    =   137.94 Bohr mag/cell

     iteration #171     ecut=    45.00 Ry     beta= 0.10
     Davidson diagonalization with overlap
     ethr =  1.17E-10,  avg # of iterations =  2.0

     negative rho (up, down):  0.000E+00 4.673E-03

     total cpu time spent up to now is    61479.1 secs

     total energy              =  -13654.32354805 Ry
     estimated scf accuracy    <       0.00000139 Ry

     total magnetization       =   129.92 Bohr mag/cell
     absolute magnetization    =   137.94 Bohr mag/cell

     iteration #172     ecut=    45.00 Ry     beta= 0.10
     Davidson diagonalization with overlap
     ethr =  1.17E-10,  avg # of iterations =  1.5

     negative rho (up, down):  0.000E+00 4.673E-03

     total cpu time spent up to now is    61810.1 secs

     total energy              =  -13654.32354808 Ry
     estimated scf accuracy    <       0.00000142 Ry

     total magnetization       =   129.92 Bohr mag/cell
     absolute magnetization    =   137.94 Bohr mag/cell

     iteration #173     ecut=    45.00 Ry     beta= 0.10
     Davidson diagonalization with overlap
     ethr =  1.17E-10,  avg # of iterations =  1.0

     negative rho (up, down):  0.000E+00 4.672E-03

     total cpu time spent up to now is    62117.6 secs

     total energy              =  -13654.32354812 Ry
     estimated scf accuracy    <       0.00000144 Ry

     total magnetization       =   129.92 Bohr mag/cell
     absolute magnetization    =   137.94 Bohr mag/cell

     iteration #174     ecut=    45.00 Ry     beta= 0.10
     Davidson diagonalization with overlap
     ethr =  1.17E-10,  avg # of iterations =  1.0

     negative rho (up, down):  0.000E+00 4.669E-03

     total cpu time spent up to now is    62425.0 secs

     total energy              =  -13654.32354838 Ry
     estimated scf accuracy    <       0.00000109 Ry

     total magnetization       =   129.92 Bohr mag/cell
     absolute magnetization    =   137.94 Bohr mag/cell

     iteration #175     ecut=    45.00 Ry     beta= 0.10
     Davidson diagonalization with overlap
     ethr =  1.17E-10,  avg # of iterations =  2.0

     negative rho (up, down):  0.000E+00 4.679E-03

     Magnetic moment per site  (integrated on atomic sphere of radius R)
     atom   1 (R=0.119)  charge= 14.4268  magn=  2.5029
     atom   2 (R=0.119)  charge= 14.4098  magn=  2.6009
     atom   3 (R=0.119)  charge= 16.6561  magn=  1.0221
     atom   4 (R=0.119)  charge= 14.4098  magn=  2.6008
     atom   5 (R=0.119)  charge= 14.4273  magn=  2.5033
     atom   6 (R=0.119)  charge= 14.4201  magn=  2.5186
     atom   7 (R=0.119)  charge= 14.4230  magn=  2.5019
     atom   8 (R=0.119)  charge= 14.4098  magn=  2.6007
     atom   9 (R=0.119)  charge= 14.4279  magn=  2.5034
     atom  10 (R=0.119)  charge= 14.4195  magn=  2.5182
     atom  11 (R=0.119)  charge= 14.4279  magn=  2.5034
     atom  12 (R=0.119)  charge= 14.4098  magn=  2.6007
     atom  13 (R=0.119)  charge= 14.4273  magn=  2.5032
     atom  14 (R=0.119)  charge= 14.3955  magn=  2.6950
     atom  15 (R=0.119)  charge= 14.4279  magn=  2.5034
     atom  16 (R=0.119)  charge= 14.4098  magn=  2.6008
     atom  17 (R=0.119)  charge= 14.4236  magn=  2.5022
     atom  18 (R=0.119)  charge= 14.4098  magn=  2.6007
     atom  19 (R=0.119)  charge= 14.4273  magn=  2.5032
     atom  20 (R=0.119)  charge= 14.4200  magn=  2.5184
     atom  21 (R=0.119)  charge= 14.4279  magn=  2.5034
     atom  22 (R=0.119)  charge= 14.4092  magn=  2.6005
     atom  23 (R=0.119)  charge= 14.4236  magn=  2.5022
     atom  24 (R=0.119)  charge= 14.4098  magn=  2.6006
     atom  25 (R=0.119)  charge= 14.4278  magn=  2.5035
     atom  26 (R=0.119)  charge= 14.4092  magn=  2.6007
     atom  27 (R=0.119)  charge= 14.4236  magn=  2.5023
     atom  28 (R=0.119)  charge= 14.4087  magn=  2.6004
     atom  29 (R=0.119)  charge= 14.4279  magn=  2.5037
     atom  30 (R=0.119)  charge= 14.3949  magn=  2.6948
     atom  31 (R=0.119)  charge= 16.6566  magn=  1.0223
     atom  32 (R=0.119)  charge= 14.4098  magn=  2.6007
     atom  33 (R=0.119)  charge= 14.4279  magn=  2.5036
     atom  34 (R=0.119)  charge= 14.4195  magn=  2.5182
     atom  35 (R=0.119)  charge= 14.4279  magn=  2.5036
     atom  36 (R=0.119)  charge= 14.4098  magn=  2.6007
     atom  37 (R=0.119)  charge= 14.4230  magn=  2.5019
     atom  38 (R=0.119)  charge= 14.4098  magn=  2.6009
     atom  39 (R=0.119)  charge= 14.4279  magn=  2.5034
     atom  40 (R=0.119)  charge= 14.3954  magn=  2.6949
     atom  41 (R=0.119)  charge= 14.4279  magn=  2.5034
     atom  42 (R=0.119)  charge= 14.4098  magn=  2.6006
     atom  43 (R=0.119)  charge= 14.4279  magn=  2.5034
     atom  44 (R=0.119)  charge= 14.4200  magn=  2.5184
     atom  45 (R=0.119)  charge= 14.4279  magn=  2.5036
     atom  46 (R=0.119)  charge= 14.4092  magn=  2.6005
     atom  47 (R=0.119)  charge= 16.6567  magn=  1.0224
     atom  48 (R=0.119)  charge= 14.4098  magn=  2.6006
     atom  49 (R=0.119)  charge= 14.4278  magn=  2.5035
     atom  50 (R=0.119)  charge= 14.4098  magn=  2.6009
     atom  51 (R=0.119)  charge= 14.4236  magn=  2.5023
     atom  52 (R=0.119)  charge= 14.4098  magn=  2.6008
     atom  53 (R=0.119)  charge= 14.4279  magn=  2.5037
     atom  54 (R=0.119)  charge= 14.4201  magn=  2.5186

     total cpu time spent up to now is    62808.0 secs

     End of self-consistent calculation

 ------ SPIN UP ------------


          k = 0.0000 0.0000 0.0000 ( 21879 PWs)   bands (ev):

   -87.0334 -87.0331 -87.0330 -71.0241 -71.0240 -71.0240 -70.8827 -70.8734
   -70.8734 -70.8733 -70.8733 -70.8713 -70.8712 -70.8688 -70.8688 -70.8688
   -70.8688 -70.8667 -70.8667 -70.8666 -70.8665 -70.8663 -70.8662 -70.8647
   -70.7613 -70.7573 -70.7568 -70.7568 -70.7567 -70.7567 -70.7195 -70.7195
   -70.7194 -70.7194 -70.7167 -70.7159 -70.6864 -70.6864 -70.6857 -70.6857
   -70.6857 -70.6857 -70.6841 -70.6841 -70.6840 -70.6840 -70.6840 -70.6839
   -70.6833 -70.6828 -70.6828 -70.6827 -70.6827 -70.6739 -47.2052 -47.2051
   -47.2039 -47.2035 -47.2017 -47.2017 -47.2015 -47.2013 -47.2000 -37.1492
   -37.1491 -37.1482 -37.0138 -37.0138 -37.0138 -37.0138 -37.0057 -37.0056
   -36.9855 -36.9713 -36.9712 -36.9642 -36.9642 -36.9624 -36.9624 -36.9617
   -36.9617 -36.9616 -36.9616 -36.9605 -36.9583 -36.9583 -36.9505 -36.9504
   -36.9463 -36.9463 -36.9445 -36.9444 -36.9444 -36.9444 -36.9273 -36.9136
   -36.9096 -36.9096 -36.9049 -36.9049 -36.9048 -36.9048 -36.8997 -36.8904
   -36.8903 -36.8877 -36.8877 -36.8877 -36.8877 -36.8871 -36.8727 -36.8726
   -36.8634 -36.8633 -36.8615 -36.8615 -36.8614 -36.8614 -36.8594 -36.8594
   -36.8593 -36.8592 -36.8547 -36.8547 -36.8547 -36.8547 -36.8361 -36.8088
   -36.8086 -36.8039 -36.8039 -36.8039 -36.8039 -36.8038 -36.8038 -36.8002
   -36.8001 -36.7953 -36.7953 -36.7833 -36.7833 -36.7832 -36.7832 -36.7771
   -36.6872 -36.6871 -36.6839 -36.6839 -36.6836 -36.6836 -36.6813 -36.6813
   -36.6812 -36.6811 -36.6779 -36.6711 -36.6711 -36.6711 -36.6711 -36.6699
   -36.6698 -36.6640 -36.6639 -36.6613 -36.6613 -36.6612 -36.6612 -36.6610
   -36.6610 -36.6606 -36.6586 -36.6586 -36.6569 -36.6569 -36.6559 -36.6559
   -36.6559 -36.6559 -36.6513 -36.6486 -36.6485 -36.6447 -36.6447 -36.6447
   -36.6446 -36.6392 -36.6355 -36.6355 -36.6353 -36.6353 -36.6343 -36.6342
   -36.6322 -36.6321 -36.6318 -36.6317 -36.6265 -36.6265 -36.6265 -36.6265
   -36.6263 -36.6063 -36.6026 -36.6026 -36.5899 -36.5899 -36.5898 -36.5898
   -36.5855 -36.5855 -36.5743 -36.5739 -36.5738 -36.5679 -36.5679 -36.5632
     9.1207  11.0686  11.0686  11.2080  11.2080  11.2082  11.2082  12.1894
    12.2396  12.2397  12.3065  12.3066  12.3319  12.3320  12.3377  12.3377
    12.3377  12.3378  12.3653  12.7580  12.7580  13.0990  13.1079  13.1079
    13.1329  13.1330  13.1354  13.1355  13.1355  13.1355  13.1722  13.1722
    13.1771  13.3048  13.3049  13.3051  13.3051  13.3406  13.3409  13.5976
    13.5977  13.5977  13.5978  13.6513  13.6513  13.7326  13.7330  13.7414
    13.7463  13.7464  13.7468  13.7470  13.7500  13.7696  13.8001  13.8001
    13.8003  13.8003  13.8502  13.8502  13.8708  14.0232  14.0234  14.0658
    14.0658  14.0800  14.0800  14.0802  14.0802  14.1267  14.1267  14.1556
    14.1557  14.1560  14.1561  14.1593  14.1594  14.2305  14.2811  14.2811
    14.2941  14.2943  14.2945  14.2945  14.2946  14.2946  14.3594  14.3594
    14.3595  14.3595  14.3624  14.3625  14.3723  14.3723  14.3814  14.3814
    14.3815  14.3815  14.3909  14.3911  14.3976  14.3976  14.4129  14.4142
    14.4143  14.5796  14.5797  14.6105  14.6105  14.6105  14.6105  14.6310
    14.6310  14.6317  14.6394  14.6395  14.6814  14.6814  14.6944  14.6962
    14.6962  14.7090  14.7134  14.7134  14.7134  14.7134  14.7308  14.7436
    14.7436  15.1301  15.1301  15.1351  15.1351  15.1351  15.1352  15.1401
    15.1421  15.1422  15.2361  15.2362  15.2362  15.2362  15.2488  15.2489
    15.3016  15.3017  15.3018  15.3018  15.3993  15.3994  15.4042  15.4042
    15.4138  15.4252  15.4252  15.4385  15.4385  15.4385  15.4385  15.4434
    15.4435  15.4682  15.6306  15.6307  15.6516  15.6516  15.6517  15.6518
    15.7794  15.7794  15.9053  15.9056  15.9056  15.9056  15.9056  15.9142
    15.9142  15.9479  15.9479  15.9844  15.9844  15.9844  15.9845  16.0033
    16.0033  16.0126  16.0127  16.0231  16.1290  16.1290  16.1291  16.1291
    16.1584  16.1584  16.1584  16.1584  16.1740  16.1741  16.2064  16.2572
    16.2572  16.2933  16.2933  16.2938  16.2938  16.3033  16.3134  16.3134
    16.3135  16.3135  16.3857  16.3857  16.4136  16.4137  16.4179  16.4179
    16.4179  16.4180  16.4262  16.4263  16.4326  16.4326  16.4457  16.4457
    16.4472  16.4473  16.4473  16.4473  16.4564  16.4780  16.4888  16.4888
    16.4993  16.4994  16.5156  16.5157  16.5187  16.5187  16.5225  16.5225
    16.5226  16.5226  16.5682  16.5682  16.5683  16.5683  16.5796  16.5796
    16.5931  16.5931  16.7202  16.7203  16.7321  16.7321  16.7321  16.7321
    16.7606  16.7606  16.7715  16.7715  16.7735  16.7736  16.7737  16.7738
    16.8905  16.8906  16.8991  16.9207  16.9207  16.9207  16.9207  16.9309
    16.9312  16.9312  17.0626  17.3007  17.3007  17.4544  17.4614  17.4614
    17.4615  17.4615  17.5253  17.5253  17.5766  17.5766  17.5776  17.5776
    17.5948  19.1595  19.1886  19.1887  19.1893  19.1894  19.2294  19.2301
    19.2528  20.0674  20.0675  20.0681  20.0683  20.0714  20.0723  20.3803
    20.4357  20.4387

          k = 0.0000 0.0000 0.3333 ( 21891 PWs)   bands (ev):

   -87.0334 -87.0331 -87.0330 -71.0241 -71.0241 -71.0240 -70.8812 -70.8775
   -70.8739 -70.8723 -70.8722 -70.8714 -70.8705 -70.8703 -70.8695 -70.8675
   -70.8674 -70.8671 -70.8668 -70.8667 -70.8666 -70.8665 -70.8656 -70.8649
   -70.7609 -70.7593 -70.7572 -70.7570 -70.7568 -70.7545 -70.7212 -70.7200
   -70.7184 -70.7175 -70.7172 -70.7162 -70.6874 -70.6860 -70.6858 -70.6857
   -70.6854 -70.6854 -70.6852 -70.6847 -70.6847 -70.6841 -70.6836 -70.6835
   -70.6835 -70.6834 -70.6833 -70.6820 -70.6788 -70.6751 -47.2069 -47.2061
   -47.2055 -47.2044 -47.2037 -47.2029 -47.2026 -47.2019 -47.1964 -37.1500
   -37.1491 -37.1484 -37.0181 -37.0116 -37.0098 -37.0096 -37.0047 -37.0035
   -36.9793 -36.9753 -36.9726 -36.9723 -36.9673 -36.9666 -36.9665 -36.9653
   -36.9623 -36.9617 -36.9572 -36.9566 -36.9556 -36.9522 -36.9499 -36.9471
   -36.9444 -36.9444 -36.9435 -36.9417 -36.9344 -36.9242 -36.9227 -36.9180
   -36.9172 -36.9125 -36.9111 -36.9084 -36.9063 -36.8999 -36.8989 -36.8988
   -36.8962 -36.8955 -36.8881 -36.8871 -36.8867 -36.8858 -36.8855 -36.8840
   -36.8818 -36.8747 -36.8747 -36.8709 -36.8661 -36.8551 -36.8528 -36.8451
   -36.8431 -36.8411 -36.8397 -36.8389 -36.8327 -36.8321 -36.8292 -36.8160
   -36.8050 -36.8050 -36.8036 -36.8012 -36.8010 -36.7982 -36.7965 -36.7957
   -36.7923 -36.7921 -36.7906 -36.7854 -36.7785 -36.7775 -36.7604 -36.7599
   -36.7189 -36.7062 -36.7059 -36.7019 -36.7017 -36.6999 -36.6998 -36.6953
   -36.6941 -36.6938 -36.6918 -36.6857 -36.6852 -36.6837 -36.6784 -36.6744
   -36.6742 -36.6734 -36.6680 -36.6654 -36.6629 -36.6611 -36.6602 -36.6564
   -36.6563 -36.6561 -36.6558 -36.6557 -36.6554 -36.6529 -36.6522 -36.6514
   -36.6497 -36.6478 -36.6470 -36.6443 -36.6441 -36.6436 -36.6415 -36.6413
   -36.6334 -36.6322 -36.6315 -36.6311 -36.6306 -36.6290 -36.6288 -36.6268
   -36.6253 -36.6241 -36.6217 -36.6187 -36.6183 -36.6157 -36.6145 -36.6144
   -36.6134 -36.6110 -36.6078 -36.6037 -36.5980 -36.5949 -36.5940 -36.5936
   -36.5931 -36.5931 -36.5916 -36.5878 -36.5833 -36.5771 -36.5768 -36.5738
     9.3603  10.0755  11.2866  11.2983  11.3874  11.3880  11.7615  11.7656
    11.8499  11.8509  12.3580  12.4740  12.4898  12.5111  12.5246  12.6330
    12.6344  12.6660  12.6699  12.8613  12.8697  12.8818  12.9029  12.9071
    12.9258  13.0444  13.0621  13.0663  13.0902  13.1247  13.1745  13.1802
    13.2859  13.3010  13.3100  13.3190  13.3258  13.3463  13.3496  13.3502
    13.3679  13.3714  13.4023  13.4028  13.6174  13.6254  13.6672  13.6748
    13.6778  13.6948  13.6969  13.7052  13.7062  13.7079  13.7117  13.7155
    13.7305  13.7419  13.7454  13.7871  14.0220  14.0301  14.0501  14.0726
    14.0757  14.0953  14.0975  14.1193  14.1218  14.1307  14.1347  14.1434
    14.1531  14.1649  14.1825  14.2280  14.2283  14.2360  14.2455  14.2498
    14.2654  14.2857  14.2941  14.2950  14.2969  14.3016  14.3106  14.3288
    14.3340  14.3459  14.3566  14.4019  14.4080  14.4106  14.4847  14.4962
    14.5005  14.5017  14.5026  14.5105  14.5174  14.5201  14.5207  14.5245
    14.5365  14.5456  14.5461  14.5503  14.5685  14.5704  14.5851  14.5957
    14.6009  14.6134  14.6235  14.6269  14.6272  14.6422  14.6494  14.6624
    14.6943  14.7916  14.8649  14.8668  14.9064  14.9088  14.9344  14.9512
    14.9607  14.9824  14.9853  14.9943  14.9946  15.0083  15.0435  15.0593
    15.0597  15.0617  15.0782  15.0982  15.1111  15.1190  15.1340  15.1373
    15.1818  15.1861  15.1986  15.2138  15.2189  15.2239  15.2334  15.3493
    15.3503  15.3507  15.5448  15.5501  15.5592  15.5595  15.5924  15.6140
    15.6204  15.6627  15.6774  15.6789  15.6930  15.6972  15.7535  15.7719
    15.8161  15.8310  15.8478  15.8555  15.8610  15.8736  15.8807  15.9053
    15.9268  15.9326  15.9559  15.9619  15.9719  16.0062  16.0151  16.0164
    16.0230  16.0334  16.0405  16.0441  16.0937  16.0951  16.1077  16.1121
    16.1378  16.1493  16.1504  16.1626  16.1654  16.1873  16.2016  16.2297
    16.2482  16.2677  16.2823  16.2952  16.3017  16.3093  16.3135  16.3222
    16.3293  16.3482  16.3545  16.3567  16.3736  16.3762  16.3859  16.4003
    16.4009  16.4012  16.4035  16.4237  16.4324  16.4412  16.4420  16.4494
    16.4542  16.4549  16.4584  16.4599  16.4675  16.4708  16.4710  16.4793
    16.4856  16.4881  16.4931  16.4946  16.4992  16.5111  16.5182  16.5385
    16.5608  16.5625  16.5693  16.5776  16.6009  16.6075  16.6228  16.6516
    16.6571  16.6595  16.6776  16.6790  16.7893  16.8088  16.8170  16.8539
    16.9297  16.9341  16.9741  17.0417  17.0614  17.0679  17.0694  17.1013
    17.1052  17.1147  17.1214  17.1533  17.1599  17.2248  17.2328  17.2369
    17.2511  17.2606  17.2723  17.2842  17.3010  17.3266  17.3477  17.3758
    17.3893  17.3918  17.4003  17.4184  17.4290  17.4340  17.4933  17.4960
    17.5148  18.1361  18.2046  18.2305  18.2338  18.2507  18.7593  18.7605
    18.8600  18.8623  20.3004  20.3033  20.3133  20.3160  20.3969  20.4034
    20.4109  20.4121

          k = 0.0000 0.3333 0.3333 ( 21886 PWs)   bands (ev):

   -87.0334 -87.0331 -87.0330 -71.0241 -71.0241 -71.0241 -70.8800 -70.8772
   -70.8751 -70.8750 -70.8716 -70.8708 -70.8700 -70.8699 -70.8698 -70.8673
   -70.8673 -70.8670 -70.8669 -70.8668 -70.8666 -70.8656 -70.8656 -70.8654
   -70.7601 -70.7600 -70.7586 -70.7574 -70.7555 -70.7538 -70.7216 -70.7198
   -70.7189 -70.7172 -70.7168 -70.7165 -70.6873 -70.6865 -70.6864 -70.6863
   -70.6854 -70.6853 -70.6850 -70.6849 -70.6848 -70.6845 -70.6844 -70.6836
   -70.6829 -70.6828 -70.6815 -70.6806 -70.6791 -70.6761 -47.2120 -47.2070
   -47.2056 -47.2040 -47.2025 -47.2011 -47.2008 -47.1980 -47.1978 -37.1508
   -37.1494 -37.1480 -37.0230 -37.0130 -37.0091 -37.0061 -37.0035 -37.0028
   -36.9861 -36.9799 -36.9770 -36.9719 -36.9680 -36.9666 -36.9656 -36.9650
   -36.9641 -36.9635 -36.9632 -36.9591 -36.9541 -36.9535 -36.9487 -36.9469
   -36.9457 -36.9387 -36.9385 -36.9334 -36.9311 -36.9300 -36.9273 -36.9225
   -36.9197 -36.9110 -36.9104 -36.9095 -36.9090 -36.9034 -36.9026 -36.8990
   -36.8937 -36.8936 -36.8923 -36.8920 -36.8894 -36.8861 -36.8772 -36.8759
   -36.8742 -36.8709 -36.8698 -36.8686 -36.8669 -36.8664 -36.8492 -36.8484
   -36.8434 -36.8416 -36.8396 -36.8394 -36.8374 -36.8276 -36.8225 -36.8181
   -36.8140 -36.8131 -36.8101 -36.7991 -36.7983 -36.7967 -36.7965 -36.7964
   -36.7962 -36.7935 -36.7933 -36.7844 -36.7844 -36.7698 -36.7574 -36.7555
   -36.7111 -36.7072 -36.7041 -36.7034 -36.7011 -36.6996 -36.6929 -36.6907
   -36.6892 -36.6886 -36.6874 -36.6853 -36.6834 -36.6825 -36.6809 -36.6807
   -36.6752 -36.6747 -36.6729 -36.6712 -36.6687 -36.6658 -36.6651 -36.6618
   -36.6614 -36.6588 -36.6567 -36.6565 -36.6563 -36.6546 -36.6516 -36.6512
   -36.6508 -36.6496 -36.6476 -36.6476 -36.6449 -36.6448 -36.6425 -36.6416
   -36.6391 -36.6361 -36.6321 -36.6263 -36.6259 -36.6258 -36.6242 -36.6240
   -36.6208 -36.6171 -36.6160 -36.6159 -36.6144 -36.6140 -36.6119 -36.6110
   -36.6102 -36.6098 -36.6057 -36.6036 -36.6015 -36.5981 -36.5951 -36.5918
   -36.5918 -36.5883 -36.5863 -36.5829 -36.5821 -36.5770 -36.5755 -36.5751
     9.6048  10.2539  10.3461  10.9260  11.5292  11.5346  11.9622  11.9667
    12.0516  12.0520  12.4297  12.5030  12.5206  12.5267  12.6082  12.6267
    12.6423  12.7121  12.8067  12.8110  12.8394  12.8442  12.9561  12.9813
    13.0563  13.0579  13.0588  13.0733  13.1084  13.1705  13.1789  13.1997
    13.2175  13.2212  13.2611  13.2821  13.2862  13.2972  13.2981  13.2985
    13.3114  13.4312  13.4334  13.4459  13.4473  13.4916  13.4990  13.5019
    13.5067  13.5089  13.5122  13.6154  13.7022  13.7031  13.7204  13.7266
    13.7931  13.7961  13.8994  13.9020  13.9247  13.9472  13.9970  14.0123
    14.0235  14.0305  14.0441  14.0460  14.0521  14.0524  14.0837  14.0872
    14.0970  14.1132  14.1545  14.1557  14.1603  14.1690  14.1699  14.1908
    14.2029  14.2096  14.2191  14.2262  14.2295  14.2624  14.2654  14.2985
    14.3165  14.3315  14.3651  14.3744  14.4301  14.4492  14.4513  14.4680
    14.5075  14.5179  14.5268  14.5292  14.5500  14.5612  14.5824  14.6042
    14.6126  14.6432  14.6675  14.6940  14.7031  14.7162  14.7427  14.7461
    14.7507  14.7582  14.7653  14.7879  14.7932  14.8002  14.8139  14.8267
    14.8357  14.8480  14.8619  14.8655  14.8679  14.8687  14.8894  14.8958
    14.8969  14.8975  14.9028  14.9074  14.9170  14.9234  14.9307  14.9486
    14.9587  14.9732  14.9941  15.0097  15.0181  15.0586  15.0723  15.0935
    15.1164  15.1196  15.1988  15.2002  15.2140  15.3306  15.3509  15.3589
    15.3722  15.3725  15.3769  15.4238  15.4562  15.5174  15.5363  15.6506
    15.6513  15.6560  15.6588  15.6645  15.7156  15.7685  15.8024  15.8046
    15.8128  15.8998  15.9177  15.9255  15.9587  15.9690  15.9969  16.0084
    16.0280  16.0362  16.0740  16.0781  16.0802  16.0862  16.0896  16.1028
    16.1047  16.1177  16.1287  16.1319  16.1480  16.1928  16.2011  16.2144
    16.2183  16.2199  16.2293  16.2357  16.2522  16.2602  16.2690  16.2772
    16.2824  16.2842  16.2846  16.2987  16.3213  16.3219  16.3276  16.3302
    16.3374  16.3428  16.3441  16.3546  16.3556  16.3782  16.3837  16.3866
    16.3944  16.4003  16.4182  16.4209  16.4298  16.4318  16.4451  16.4483
    16.4620  16.4620  16.4652  16.4695  16.4726  16.4912  16.5178  16.5246
    16.5295  16.5395  16.5406  16.5461  16.5466  16.5534  16.5564  16.5795
    16.6136  16.6293  16.6401  16.6410  16.6499  16.6585  16.6596  16.6946
    16.7193  16.7268  16.7284  16.7373  16.7425  16.7436  16.7488  16.8107
    16.8567  16.8599  16.8616  16.8760  16.8967  16.9416  17.0150  17.0475
    17.0496  17.0536  17.0767  17.0976  17.1010  17.1120  17.1163  17.1246
    17.1423  17.1621  17.1943  17.1979  17.2107  17.2166  17.2246  17.3727
    17.3822  17.4050  17.4333  17.4638  17.4883  17.5313  17.5650  18.0529
    18.0654  18.1753  18.1762  18.2557  18.2861  18.3812  18.5883  18.6115
    19.2105  19.2121  19.2290  19.2313  19.4718  19.4738  19.4846  19.4884
    20.5953  20.5976

          k = 0.3333 0.3333 0.3333 ( 21842 PWs)   bands (ev):

   -87.0334 -87.0331 -87.0330 -71.0241 -71.0240 -71.0240 -70.8786 -70.8771
   -70.8762 -70.8742 -70.8732 -70.8721 -70.8710 -70.8689 -70.8687 -70.8672
   -70.8671 -70.8670 -70.8669 -70.8666 -70.8664 -70.8658 -70.8657 -70.8651
   -70.7601 -70.7588 -70.7586 -70.7582 -70.7572 -70.7521 -70.7223 -70.7189
   -70.7184 -70.7178 -70.7171 -70.7165 -70.6873 -70.6869 -70.6866 -70.6859
   -70.6857 -70.6857 -70.6856 -70.6853 -70.6846 -70.6844 -70.6839 -70.6839
   -70.6824 -70.6815 -70.6814 -70.6796 -70.6787 -70.6776 -47.2069 -47.2042
   -47.2031 -47.2016 -47.1999 -47.1988 -47.1976 -47.1962 -47.1955 -37.1513
   -37.1485 -37.1476 -37.0202 -37.0191 -37.0145 -37.0084 -37.0009 -36.9960
   -36.9828 -36.9818 -36.9816 -36.9763 -36.9712 -36.9709 -36.9696 -36.9642
   -36.9619 -36.9610 -36.9585 -36.9515 -36.9507 -36.9486 -36.9472 -36.9468
   -36.9442 -36.9437 -36.9435 -36.9350 -36.9345 -36.9328 -36.9236 -36.9213
   -36.9151 -36.9129 -36.9092 -36.9040 -36.9026 -36.8993 -36.8982 -36.8980
   -36.8946 -36.8928 -36.8906 -36.8892 -36.8876 -36.8837 -36.8794 -36.8777
   -36.8746 -36.8740 -36.8688 -36.8685 -36.8633 -36.8582 -36.8580 -36.8561
   -36.8535 -36.8460 -36.8420 -36.8414 -36.8413 -36.8392 -36.8133 -36.8122
   -36.8118 -36.8073 -36.8010 -36.7998 -36.7980 -36.7979 -36.7946 -36.7945
   -36.7893 -36.7882 -36.7868 -36.7868 -36.7784 -36.7783 -36.7559 -36.7498
   -36.7091 -36.7081 -36.7029 -36.6990 -36.6980 -36.6944 -36.6937 -36.6926
   -36.6891 -36.6866 -36.6865 -36.6854 -36.6835 -36.6832 -36.6824 -36.6815
   -36.6778 -36.6772 -36.6763 -36.6758 -36.6733 -36.6728 -36.6697 -36.6677
   -36.6638 -36.6631 -36.6605 -36.6585 -36.6579 -36.6552 -36.6546 -36.6542
   -36.6456 -36.6454 -36.6415 -36.6392 -36.6370 -36.6365 -36.6352 -36.6342
   -36.6322 -36.6313 -36.6281 -36.6273 -36.6263 -36.6257 -36.6242 -36.6216
   -36.6204 -36.6201 -36.6177 -36.6164 -36.6131 -36.6123 -36.6116 -36.6081
   -36.6073 -36.6067 -36.6032 -36.6030 -36.6006 -36.5995 -36.5950 -36.5911
   -36.5904 -36.5863 -36.5850 -36.5849 -36.5838 -36.5796 -36.5795 -36.5790
     9.8431  10.4782  10.5232  10.5717  11.1050  11.1483  11.1941  11.7482
    12.5365  12.5804  12.6242  12.7321  12.7440  12.7715  12.8000  12.8135
    12.8144  12.8226  12.8249  12.8257  12.8614  12.8681  12.8684  13.0625
    13.0705  13.1377  13.1602  13.1729  13.2058  13.2106  13.2213  13.2639
    13.2650  13.2659  13.2832  13.2858  13.2923  13.3016  13.3032  13.3102
    13.3120  13.3193  13.3245  13.3328  13.3384  13.3424  13.3486  13.3589
    13.3666  13.4381  13.4501  13.4563  13.5443  13.5578  13.5774  13.6527
    13.6654  13.6883  13.7962  13.8015  13.9415  13.9827  13.9962  14.0250
    14.0268  14.0358  14.0486  14.0530  14.0660  14.0771  14.0844  14.0977
    14.1004  14.1166  14.1202  14.1211  14.1296  14.1297  14.1421  14.1482
    14.1529  14.2195  14.2201  14.2331  14.2589  14.2958  14.2977  14.3114
    14.3237  14.3303  14.3337  14.3468  14.3684  14.3726  14.3902  14.4267
    14.4371  14.4620  14.4630  14.4739  14.4837  14.4909  14.5226  14.5480
    14.5607  14.5786  14.6255  14.6292  14.6603  14.6940  14.6966  14.7346
    14.7403  14.7569  14.7609  14.7623  14.7769  14.7803  14.8016  14.8220
    14.8280  14.8338  14.8415  14.8556  14.8576  14.8600  14.8707  14.8738
    14.8761  14.8773  14.8827  14.8926  14.8930  14.9021  14.9021  14.9617
    14.9697  15.0059  15.0102  15.0133  15.1188  15.1488  15.2005  15.2438
    15.2582  15.2614  15.2940  15.3452  15.3550  15.3572  15.3639  15.3985
    15.5387  15.5638  15.5913  15.6519  15.6713  15.6824  15.7050  15.7290
    15.7630  15.7945  15.7949  15.8044  15.8050  15.8316  15.8509  15.8786
    15.8852  15.8963  15.9026  15.9244  15.9351  15.9518  15.9621  15.9862
    15.9915  16.0206  16.0306  16.0431  16.0502  16.0520  16.0576  16.0725
    16.0823  16.1071  16.1201  16.1356  16.1756  16.1818  16.1828  16.1876
    16.1988  16.1988  16.2014  16.2204  16.2224  16.2490  16.2699  16.2707
    16.2716  16.2813  16.3008  16.3216  16.3247  16.3333  16.3345  16.3417
    16.3533  16.3571  16.3621  16.3714  16.3810  16.3856  16.3906  16.3940
    16.3992  16.4117  16.4168  16.4271  16.4335  16.4353  16.4664  16.4719
    16.4789  16.4809  16.4811  16.4838  16.4904  16.4931  16.5008  16.5014
    16.5109  16.5286  16.5387  16.5465  16.5578  16.5668  16.5932  16.5939
    16.5979  16.6229  16.6273  16.6280  16.6432  16.6930  16.7070  16.7172
    16.7313  16.7350  16.7388  16.7563  16.7588  16.7801  16.7888  16.8124
    16.8152  16.8220  16.8249  16.8267  16.8349  16.8541  16.9480  16.9494
    16.9506  16.9575  16.9797  16.9901  17.0048  17.0132  17.1480  17.1637
    17.1660  17.1917  17.2068  17.2264  17.2424  17.2497  17.2776  17.2875
    17.2893  17.5613  17.5645  17.5671  17.6210  17.6246  17.6414  18.3372
    18.3581  18.3764  18.4893  18.5050  18.5221  18.6659  18.7294  18.7892
    18.9727  18.9930  19.0075  19.0279  19.0540  19.0733  19.3411  19.3784
    19.4219  19.7985

          k = 0.3333 0.0000 0.0000 ( 21891 PWs)   bands (ev):

   -87.0334 -87.0331 -87.0330 -71.0241 -71.0241 -71.0240 -70.8812 -70.8775
   -70.8739 -70.8723 -70.8722 -70.8714 -70.8705 -70.8703 -70.8695 -70.8675
   -70.8674 -70.8671 -70.8668 -70.8667 -70.8666 -70.8665 -70.8656 -70.8649
   -70.7609 -70.7593 -70.7572 -70.7569 -70.7569 -70.7545 -70.7212 -70.7200
   -70.7184 -70.7175 -70.7172 -70.7162 -70.6874 -70.6860 -70.6858 -70.6857
   -70.6854 -70.6854 -70.6852 -70.6847 -70.6847 -70.6841 -70.6836 -70.6835
   -70.6835 -70.6834 -70.6833 -70.6820 -70.6788 -70.6751 -47.2070 -47.2061
   -47.2055 -47.2044 -47.2037 -47.2030 -47.2026 -47.2018 -47.1964 -37.1500
   -37.1491 -37.1484 -37.0181 -37.0116 -37.0098 -37.0096 -37.0047 -37.0035
   -36.9793 -36.9753 -36.9727 -36.9723 -36.9673 -36.9666 -36.9665 -36.9653
   -36.9623 -36.9617 -36.9572 -36.9566 -36.9556 -36.9522 -36.9499 -36.9471
   -36.9444 -36.9444 -36.9436 -36.9417 -36.9344 -36.9242 -36.9227 -36.9180
   -36.9172 -36.9125 -36.9111 -36.9084 -36.9063 -36.8999 -36.8989 -36.8988
   -36.8962 -36.8955 -36.8881 -36.8871 -36.8867 -36.8858 -36.8855 -36.8840
   -36.8818 -36.8747 -36.8747 -36.8709 -36.8661 -36.8551 -36.8528 -36.8452
   -36.8431 -36.8411 -36.8397 -36.8389 -36.8327 -36.8321 -36.8292 -36.8160
   -36.8050 -36.8050 -36.8036 -36.8012 -36.8010 -36.7982 -36.7965 -36.7957
   -36.7923 -36.7921 -36.7906 -36.7854 -36.7785 -36.7775 -36.7604 -36.7599
   -36.7189 -36.7062 -36.7059 -36.7019 -36.7017 -36.6999 -36.6998 -36.6953
   -36.6941 -36.6938 -36.6918 -36.6857 -36.6852 -36.6837 -36.6784 -36.6744
   -36.6742 -36.6734 -36.6680 -36.6653 -36.6629 -36.6611 -36.6602 -36.6565
   -36.6563 -36.6561 -36.6558 -36.6557 -36.6554 -36.6529 -36.6522 -36.6514
   -36.6497 -36.6478 -36.6470 -36.6443 -36.6441 -36.6436 -36.6415 -36.6413
   -36.6334 -36.6322 -36.6315 -36.6311 -36.6306 -36.6290 -36.6288 -36.6268
   -36.6253 -36.6241 -36.6217 -36.6187 -36.6183 -36.6157 -36.6145 -36.6144
   -36.6134 -36.6110 -36.6078 -36.6037 -36.5980 -36.5949 -36.5940 -36.5936
   -36.5931 -36.5930 -36.5916 -36.5878 -36.5833 -36.5771 -36.5768 -36.5738
     9.3603  10.0755  11.2866  11.2983  11.3874  11.3880  11.7614  11.7656
    11.8499  11.8509  12.3580  12.4740  12.4898  12.5111  12.5246  12.6330
    12.6344  12.6660  12.6700  12.8613  12.8697  12.8818  12.9029  12.9071
    12.9258  13.0444  13.0621  13.0663  13.0903  13.1247  13.1746  13.1802
    13.2859  13.3010  13.3100  13.3190  13.3258  13.3463  13.3496  13.3502
    13.3679  13.3714  13.4024  13.4027  13.6174  13.6254  13.6672  13.6748
    13.6778  13.6948  13.6969  13.7052  13.7062  13.7079  13.7117  13.7155
    13.7305  13.7419  13.7454  13.7872  14.0220  14.0301  14.0501  14.0726
    14.0757  14.0953  14.0975  14.1193  14.1218  14.1307  14.1347  14.1434
    14.1531  14.1649  14.1825  14.2280  14.2283  14.2361  14.2454  14.2498
    14.2654  14.2856  14.2941  14.2950  14.2969  14.3016  14.3106  14.3288
    14.3340  14.3459  14.3566  14.4019  14.4080  14.4106  14.4847  14.4962
    14.5005  14.5017  14.5026  14.5104  14.5174  14.5201  14.5207  14.5245
    14.5365  14.5456  14.5461  14.5503  14.5685  14.5703  14.5851  14.5957
    14.6009  14.6134  14.6235  14.6269  14.6272  14.6422  14.6494  14.6624
    14.6943  14.7916  14.8649  14.8667  14.9064  14.9088  14.9344  14.9512
    14.9607  14.9824  14.9853  14.9943  14.9946  15.0083  15.0435  15.0593
    15.0597  15.0617  15.0782  15.0982  15.1111  15.1190  15.1340  15.1373
    15.1818  15.1861  15.1986  15.2138  15.2189  15.2239  15.2334  15.3493
    15.3503  15.3507  15.5448  15.5501  15.5592  15.5595  15.5925  15.6140
    15.6204  15.6627  15.6774  15.6789  15.6930  15.6972  15.7535  15.7719
    15.8160  15.8310  15.8478  15.8555  15.8610  15.8736  15.8807  15.9053
    15.9268  15.9326  15.9559  15.9619  15.9719  16.0062  16.0151  16.0164
    16.0230  16.0334  16.0405  16.0441  16.0937  16.0951  16.1077  16.1121
    16.1378  16.1493  16.1504  16.1626  16.1654  16.1873  16.2016  16.2298
    16.2482  16.2677  16.2823  16.2953  16.3017  16.3093  16.3135  16.3222
    16.3294  16.3482  16.3545  16.3567  16.3736  16.3762  16.3860  16.4003
    16.4009  16.4012  16.4035  16.4237  16.4324  16.4412  16.4420  16.4494
    16.4542  16.4549  16.4584  16.4599  16.4675  16.4708  16.4710  16.4793
    16.4856  16.4881  16.4931  16.4946  16.4992  16.5111  16.5182  16.5385
    16.5608  16.5625  16.5693  16.5776  16.6009  16.6075  16.6228  16.6517
    16.6571  16.6595  16.6776  16.6790  16.7893  16.8088  16.8170  16.8539
    16.9297  16.9341  16.9741  17.0417  17.0614  17.0679  17.0693  17.1013
    17.1052  17.1147  17.1214  17.1534  17.1599  17.2248  17.2328  17.2370
    17.2512  17.2606  17.2723  17.2842  17.3010  17.3266  17.3477  17.3758
    17.3893  17.3918  17.4003  17.4184  17.4290  17.4340  17.4933  17.4960
    17.5148  18.1360  18.2046  18.2305  18.2338  18.2507  18.7594  18.7604
    18.8601  18.8622  20.3004  20.3033  20.3134  20.3160  20.3969  20.4034
    20.4109  20.4121

          k = 0.0000 0.3333-0.3333 ( 21886 PWs)   bands (ev):

   -87.0334 -87.0331 -87.0330 -71.0241 -71.0241 -71.0241 -70.8799 -70.8768
   -70.8768 -70.8733 -70.8713 -70.8713 -70.8710 -70.8696 -70.8695 -70.8674
   -70.8672 -70.8672 -70.8666 -70.8665 -70.8663 -70.8662 -70.8661 -70.8649
   -70.7608 -70.7586 -70.7585 -70.7584 -70.7546 -70.7546 -70.7205 -70.7205
   -70.7187 -70.7186 -70.7165 -70.7160 -70.6872 -70.6871 -70.6861 -70.6861
   -70.6854 -70.6853 -70.6850 -70.6849 -70.6848 -70.6841 -70.6841 -70.6839
   -70.6830 -70.6829 -70.6828 -70.6791 -70.6790 -70.6765 -47.2067 -47.2064
   -47.2055 -47.2043 -47.2041 -47.2026 -47.2024 -47.2015 -47.1952 -37.1503
   -37.1503 -37.1473 -37.0215 -37.0113 -37.0113 -37.0103 -37.0021 -37.0021
   -36.9872 -36.9798 -36.9760 -36.9730 -36.9730 -36.9663 -36.9663 -36.9658
   -36.9623 -36.9622 -36.9597 -36.9564 -36.9564 -36.9483 -36.9468 -36.9466
   -36.9466 -36.9415 -36.9414 -36.9389 -36.9319 -36.9235 -36.9235 -36.9182
   -36.9141 -36.9140 -36.9107 -36.9106 -36.9090 -36.9058 -36.9041 -36.9041
   -36.8985 -36.8907 -36.8886 -36.8886 -36.8872 -36.8822 -36.8821 -36.8788
   -36.8787 -36.8733 -36.8732 -36.8699 -36.8606 -36.8606 -36.8555 -36.8554
   -36.8544 -36.8421 -36.8420 -36.8307 -36.8306 -36.8285 -36.8264 -36.8095
   -36.8094 -36.8084 -36.8083 -36.8018 -36.7975 -36.7974 -36.7960 -36.7939
   -36.7939 -36.7912 -36.7874 -36.7825 -36.7825 -36.7823 -36.7662 -36.7662
   -36.7052 -36.7051 -36.7025 -36.7024 -36.7000 -36.6988 -36.6987 -36.6919
   -36.6895 -36.6887 -36.6887 -36.6875 -36.6811 -36.6808 -36.6807 -36.6722
   -36.6721 -36.6691 -36.6691 -36.6682 -36.6682 -36.6669 -36.6647 -36.6634
   -36.6633 -36.6618 -36.6618 -36.6557 -36.6557 -36.6553 -36.6516 -36.6516
   -36.6515 -36.6472 -36.6469 -36.6468 -36.6437 -36.6436 -36.6402 -36.6401
   -36.6377 -36.6376 -36.6375 -36.6332 -36.6332 -36.6329 -36.6257 -36.6257
   -36.6216 -36.6216 -36.6206 -36.6170 -36.6137 -36.6107 -36.6107 -36.6081
   -36.6044 -36.6044 -36.6035 -36.6029 -36.5994 -36.5993 -36.5993 -36.5923
   -36.5866 -36.5865 -36.5863 -36.5843 -36.5819 -36.5819 -36.5760 -36.5712
     9.6042  10.2984  10.2985  10.9307  11.5292  11.5294  11.9973  12.0056
    12.0056  12.0238  12.4596  12.4596  12.5333  12.5336  12.6247  12.6247
    12.6254  12.7090  12.8180  12.8267  12.8267  12.8340  12.9627  12.9817
    13.0550  13.0562  13.0562  13.0700  13.1297  13.1297  13.1997  13.1998
    13.2140  13.2142  13.2788  13.2789  13.2870  13.2944  13.2944  13.2962
    13.3023  13.4360  13.4465  13.4465  13.4607  13.4954  13.4955  13.4965
    13.5022  13.5073  13.5076  13.6203  13.6952  13.6953  13.7238  13.7238
    13.7956  13.7957  13.9086  13.9087  13.9400  13.9401  13.9902  13.9905
    14.0259  14.0324  14.0324  14.0388  14.0527  14.0795  14.0797  14.0895
    14.1032  14.1270  14.1271  14.1628  14.1629  14.1653  14.1716  14.1937
    14.1942  14.1942  14.2243  14.2243  14.2380  14.2387  14.3047  14.3047
    14.3227  14.3341  14.3543  14.3545  14.4330  14.4330  14.4623  14.4623
    14.5034  14.5120  14.5265  14.5265  14.5719  14.5720  14.5942  14.5943
    14.6451  14.6451  14.6579  14.7006  14.7007  14.7044  14.7047  14.7642
    14.7643  14.7716  14.7791  14.7822  14.7822  14.8095  14.8096  14.8196
    14.8251  14.8252  14.8586  14.8627  14.8627  14.8704  14.8813  14.8813
    14.8994  14.8994  14.9145  14.9226  14.9226  14.9286  14.9342  14.9370
    14.9370  14.9734  15.0011  15.0293  15.0293  15.0412  15.0412  15.1057
    15.1477  15.1606  15.1606  15.1740  15.2767  15.2767  15.3124  15.3738
    15.3738  15.3905  15.4091  15.4091  15.4476  15.5945  15.5945  15.6060
    15.6060  15.6710  15.6827  15.6932  15.6933  15.7249  15.7250  15.8196
    15.8605  15.8605  15.9181  15.9452  15.9453  15.9770  15.9771  16.0340
    16.0340  16.0389  16.0390  16.0442  16.0539  16.0539  16.0558  16.0980
    16.1120  16.1257  16.1675  16.1682  16.1682  16.1887  16.1887  16.1973
    16.2097  16.2378  16.2378  16.2438  16.2475  16.2584  16.2585  16.2595
    16.2914  16.2914  16.3087  16.3087  16.3099  16.3099  16.3129  16.3140
    16.3268  16.3399  16.3518  16.3518  16.3593  16.3610  16.3825  16.3855
    16.3855  16.4138  16.4138  16.4261  16.4262  16.4436  16.4436  16.4699
    16.4701  16.4762  16.4762  16.4793  16.4856  16.4928  16.4928  16.5223
    16.5225  16.5231  16.5288  16.5354  16.5354  16.5456  16.5702  16.5702
    16.6292  16.6488  16.6488  16.6589  16.6624  16.6625  16.6844  16.6844
    16.7205  16.7278  16.7278  16.7376  16.7838  16.8178  16.8179  16.8322
    16.8375  16.8440  16.8441  16.8656  16.9003  16.9003  17.0113  17.0115
    17.0361  17.0683  17.0684  17.0937  17.1063  17.1063  17.1200  17.1200
    17.1484  17.1484  17.1699  17.1998  17.1998  17.2164  17.3183  17.3229
    17.3229  17.3737  17.4747  17.4747  17.4793  17.4857  17.6102  18.1123
    18.1168  18.1168  18.1194  18.2711  18.2712  18.3802  18.6002  18.6003
    19.1565  19.2090  19.2090  19.2623  19.4883  19.4929  19.4929  19.4978
    20.5971  20.5980

          k = 0.3333-0.3333 0.0000 ( 21886 PWs)   bands (ev):

   -87.0334 -87.0331 -87.0330 -71.0241 -71.0241 -71.0241 -70.8800 -70.8772
   -70.8751 -70.8750 -70.8716 -70.8708 -70.8700 -70.8699 -70.8698 -70.8673
   -70.8673 -70.8670 -70.8669 -70.8668 -70.8666 -70.8656 -70.8656 -70.8655
   -70.7601 -70.7600 -70.7586 -70.7574 -70.7555 -70.7538 -70.7216 -70.7198
   -70.7189 -70.7172 -70.7168 -70.7165 -70.6873 -70.6865 -70.6864 -70.6863
   -70.6854 -70.6853 -70.6849 -70.6849 -70.6848 -70.6845 -70.6844 -70.6836
   -70.6829 -70.6828 -70.6815 -70.6806 -70.6791 -70.6761 -47.2120 -47.2070
   -47.2056 -47.2040 -47.2025 -47.2011 -47.2008 -47.1980 -47.1977 -37.1508
   -37.1494 -37.1480 -37.0230 -37.0130 -37.0090 -37.0061 -37.0035 -37.0028
   -36.9861 -36.9800 -36.9770 -36.9719 -36.9680 -36.9666 -36.9656 -36.9650
   -36.9641 -36.9635 -36.9632 -36.9591 -36.9541 -36.9535 -36.9487 -36.9469
   -36.9457 -36.9387 -36.9385 -36.9334 -36.9311 -36.9300 -36.9273 -36.9225
   -36.9197 -36.9110 -36.9105 -36.9095 -36.9090 -36.9034 -36.9026 -36.8990
   -36.8937 -36.8936 -36.8923 -36.8920 -36.8894 -36.8861 -36.8772 -36.8759
   -36.8742 -36.8709 -36.8698 -36.8686 -36.8669 -36.8664 -36.8492 -36.8484
   -36.8434 -36.8416 -36.8396 -36.8394 -36.8373 -36.8276 -36.8225 -36.8181
   -36.8140 -36.8131 -36.8101 -36.7991 -36.7983 -36.7967 -36.7965 -36.7964
   -36.7962 -36.7935 -36.7933 -36.7844 -36.7844 -36.7698 -36.7574 -36.7555
   -36.7111 -36.7072 -36.7041 -36.7034 -36.7011 -36.6996 -36.6929 -36.6907
   -36.6892 -36.6886 -36.6874 -36.6853 -36.6834 -36.6825 -36.6809 -36.6807
   -36.6752 -36.6747 -36.6729 -36.6712 -36.6687 -36.6658 -36.6651 -36.6618
   -36.6614 -36.6588 -36.6567 -36.6565 -36.6563 -36.6546 -36.6516 -36.6512
   -36.6508 -36.6496 -36.6476 -36.6476 -36.6448 -36.6448 -36.6425 -36.6416
   -36.6391 -36.6361 -36.6321 -36.6263 -36.6259 -36.6258 -36.6242 -36.6240
   -36.6208 -36.6171 -36.6160 -36.6159 -36.6144 -36.6140 -36.6119 -36.6110
   -36.6102 -36.6098 -36.6057 -36.6035 -36.6015 -36.5981 -36.5951 -36.5918
   -36.5918 -36.5882 -36.5863 -36.5829 -36.5821 -36.5770 -36.5755 -36.5751
     9.6048  10.2539  10.3461  10.9260  11.5292  11.5346  11.9622  11.9667
    12.0516  12.0519  12.4297  12.5030  12.5206  12.5267  12.6083  12.6267
    12.6422  12.7121  12.8067  12.8110  12.8394  12.8441  12.9561  12.9813
    13.0564  13.0579  13.0588  13.0733  13.1084  13.1705  13.1789  13.1997
    13.2175  13.2212  13.2611  13.2822  13.2862  13.2971  13.2981  13.2985
    13.3114  13.4312  13.4334  13.4459  13.4473  13.4916  13.4990  13.5019
    13.5067  13.5089  13.5122  13.6154  13.7022  13.7031  13.7204  13.7266
    13.7931  13.7961  13.8994  13.9020  13.9247  13.9472  13.9970  14.0123
    14.0235  14.0305  14.0441  14.0460  14.0521  14.0524  14.0837  14.0873
    14.0970  14.1132  14.1545  14.1557  14.1603  14.1690  14.1699  14.1908
    14.2029  14.2096  14.2191  14.2262  14.2295  14.2624  14.2654  14.2985
    14.3165  14.3315  14.3651  14.3744  14.4301  14.4492  14.4513  14.4680
    14.5075  14.5179  14.5267  14.5292  14.5500  14.5612  14.5824  14.6042
    14.6126  14.6432  14.6675  14.6940  14.7031  14.7162  14.7427  14.7461
    14.7507  14.7582  14.7653  14.7880  14.7932  14.8002  14.8139  14.8267
    14.8357  14.8480  14.8619  14.8655  14.8679  14.8687  14.8894  14.8958
    14.8969  14.8975  14.9028  14.9074  14.9170  14.9234  14.9307  14.9486
    14.9587  14.9732  14.9941  15.0097  15.0181  15.0586  15.0723  15.0935
    15.1164  15.1196  15.1988  15.2002  15.2140  15.3306  15.3509  15.3589
    15.3722  15.3725  15.3769  15.4238  15.4562  15.5174  15.5363  15.6506
    15.6513  15.6560  15.6588  15.6645  15.7156  15.7685  15.8024  15.8046
    15.8128  15.8999  15.9177  15.9255  15.9587  15.9690  15.9969  16.0084
    16.0280  16.0362  16.0740  16.0781  16.0802  16.0862  16.0896  16.1028
    16.1046  16.1177  16.1287  16.1319  16.1480  16.1928  16.2011  16.2145
    16.2183  16.2199  16.2293  16.2357  16.2522  16.2602  16.2690  16.2772
    16.2824  16.2842  16.2846  16.2987  16.3213  16.3219  16.3276  16.3302
    16.3374  16.3427  16.3441  16.3546  16.3556  16.3782  16.3837  16.3866
    16.3944  16.4003  16.4182  16.4209  16.4298  16.4318  16.4451  16.4483
    16.4620  16.4620  16.4652  16.4695  16.4726  16.4912  16.5178  16.5246
    16.5295  16.5395  16.5406  16.5461  16.5466  16.5534  16.5564  16.5795
    16.6136  16.6293  16.6401  16.6410  16.6499  16.6585  16.6596  16.6946
    16.7193  16.7268  16.7284  16.7373  16.7425  16.7436  16.7488  16.8107
    16.8567  16.8599  16.8616  16.8760  16.8967  16.9416  17.0150  17.0475
    17.0496  17.0536  17.0767  17.0976  17.1010  17.1120  17.1164  17.1246
    17.1423  17.1621  17.1943  17.1979  17.2107  17.2166  17.2246  17.3727
    17.3822  17.4050  17.4333  17.4638  17.4883  17.5313  17.5650  18.0529
    18.0654  18.1752  18.1762  18.2557  18.2861  18.3812  18.5884  18.6114
    19.2105  19.2121  19.2290  19.2313  19.4718  19.4738  19.4846  19.4884
    20.5953  20.5975

          k =-0.3333-0.3333 0.0000 ( 21886 PWs)   bands (ev):

   -87.0334 -87.0331 -87.0330 -71.0241 -71.0241 -71.0241 -70.8799 -70.8768
   -70.8767 -70.8733 -70.8713 -70.8713 -70.8710 -70.8696 -70.8695 -70.8674
   -70.8672 -70.8672 -70.8666 -70.8665 -70.8663 -70.8663 -70.8661 -70.8649
   -70.7608 -70.7586 -70.7585 -70.7584 -70.7547 -70.7545 -70.7206 -70.7204
   -70.7187 -70.7186 -70.7165 -70.7160 -70.6872 -70.6871 -70.6861 -70.6860
   -70.6854 -70.6853 -70.6849 -70.6849 -70.6848 -70.6842 -70.6840 -70.6839
   -70.6830 -70.6829 -70.6828 -70.6791 -70.6790 -70.6765 -47.2067 -47.2064
   -47.2056 -47.2043 -47.2041 -47.2026 -47.2024 -47.2014 -47.1952 -37.1503
   -37.1503 -37.1473 -37.0215 -37.0113 -37.0113 -37.0103 -37.0021 -37.0020
   -36.9872 -36.9798 -36.9760 -36.9731 -36.9730 -36.9663 -36.9663 -36.9659
   -36.9623 -36.9622 -36.9597 -36.9564 -36.9564 -36.9483 -36.9468 -36.9467
   -36.9465 -36.9415 -36.9414 -36.9389 -36.9319 -36.9235 -36.9235 -36.9182
   -36.9141 -36.9140 -36.9107 -36.9106 -36.9090 -36.9058 -36.9041 -36.9041
   -36.8985 -36.8907 -36.8886 -36.8886 -36.8872 -36.8822 -36.8821 -36.8788
   -36.8787 -36.8733 -36.8732 -36.8699 -36.8606 -36.8606 -36.8555 -36.8554
   -36.8544 -36.8421 -36.8420 -36.8307 -36.8306 -36.8285 -36.8264 -36.8095
   -36.8094 -36.8084 -36.8083 -36.8018 -36.7975 -36.7974 -36.7960 -36.7939
   -36.7939 -36.7912 -36.7874 -36.7825 -36.7825 -36.7824 -36.7662 -36.7661
   -36.7052 -36.7052 -36.7025 -36.7024 -36.7000 -36.6988 -36.6987 -36.6919
   -36.6895 -36.6887 -36.6886 -36.6875 -36.6811 -36.6808 -36.6807 -36.6722
   -36.6721 -36.6691 -36.6691 -36.6682 -36.6682 -36.6669 -36.6647 -36.6634
   -36.6633 -36.6618 -36.6617 -36.6558 -36.6557 -36.6553 -36.6517 -36.6516
   -36.6515 -36.6472 -36.6469 -36.6468 -36.6437 -36.6436 -36.6402 -36.6401
   -36.6377 -36.6376 -36.6375 -36.6332 -36.6332 -36.6329 -36.6257 -36.6257
   -36.6216 -36.6216 -36.6206 -36.6170 -36.6137 -36.6107 -36.6106 -36.6081
   -36.6045 -36.6044 -36.6036 -36.6029 -36.5994 -36.5993 -36.5993 -36.5923
   -36.5866 -36.5865 -36.5863 -36.5843 -36.5819 -36.5819 -36.5760 -36.5712
     9.6042  10.2984  10.2985  10.9307  11.5292  11.5294  11.9972  12.0056
    12.0056  12.0238  12.4595  12.4597  12.5333  12.5336  12.6246  12.6247
    12.6254  12.7090  12.8180  12.8267  12.8267  12.8340  12.9627  12.9816
    13.0550  13.0562  13.0562  13.0700  13.1297  13.1298  13.1997  13.1998
    13.2139  13.2143  13.2787  13.2789  13.2870  13.2944  13.2944  13.2962
    13.3023  13.4360  13.4465  13.4465  13.4607  13.4954  13.4955  13.4965
    13.5022  13.5073  13.5076  13.6203  13.6952  13.6952  13.7238  13.7238
    13.7956  13.7957  13.9086  13.9087  13.9400  13.9401  13.9902  13.9905
    14.0259  14.0324  14.0324  14.0388  14.0527  14.0795  14.0797  14.0895
    14.1032  14.1269  14.1271  14.1628  14.1629  14.1653  14.1716  14.1937
    14.1942  14.1943  14.2242  14.2244  14.2380  14.2387  14.3047  14.3047
    14.3227  14.3341  14.3543  14.3545  14.4329  14.4330  14.4623  14.4624
    14.5034  14.5120  14.5265  14.5265  14.5718  14.5720  14.5942  14.5943
    14.6450  14.6451  14.6579  14.7006  14.7007  14.7044  14.7046  14.7642
    14.7643  14.7716  14.7791  14.7822  14.7822  14.8095  14.8096  14.8196
    14.8251  14.8251  14.8586  14.8626  14.8627  14.8704  14.8813  14.8813
    14.8994  14.8994  14.9145  14.9226  14.9226  14.9286  14.9342  14.9370
    14.9370  14.9734  15.0011  15.0293  15.0293  15.0412  15.0412  15.1057
    15.1477  15.1606  15.1606  15.1740  15.2767  15.2767  15.3124  15.3738
    15.3738  15.3905  15.4091  15.4091  15.4476  15.5945  15.5945  15.6060
    15.6060  15.6710  15.6827  15.6932  15.6932  15.7249  15.7250  15.8197
    15.8605  15.8605  15.9181  15.9452  15.9453  15.9770  15.9771  16.0340
    16.0340  16.0390  16.0390  16.0442  16.0539  16.0539  16.0558  16.0980
    16.1120  16.1257  16.1675  16.1682  16.1682  16.1887  16.1888  16.1973
    16.2097  16.2377  16.2378  16.2438  16.2475  16.2584  16.2584  16.2595
    16.2914  16.2914  16.3087  16.3087  16.3099  16.3100  16.3129  16.3140
    16.3268  16.3399  16.3518  16.3518  16.3593  16.3610  16.3825  16.3855
    16.3856  16.4138  16.4138  16.4261  16.4262  16.4436  16.4436  16.4699
    16.4701  16.4762  16.4762  16.4793  16.4856  16.4928  16.4928  16.5223
    16.5224  16.5231  16.5288  16.5354  16.5354  16.5456  16.5702  16.5702
    16.6292  16.6488  16.6488  16.6589  16.6625  16.6625  16.6844  16.6844
    16.7206  16.7278  16.7278  16.7376  16.7838  16.8178  16.8179  16.8322
    16.8375  16.8440  16.8441  16.8656  16.9002  16.9003  17.0113  17.0115
    17.0361  17.0683  17.0684  17.0937  17.1063  17.1063  17.1200  17.1200
    17.1484  17.1484  17.1699  17.1998  17.1998  17.2164  17.3183  17.3229
    17.3229  17.3737  17.4747  17.4747  17.4793  17.4857  17.6102  18.1123
    18.1168  18.1168  18.1194  18.2711  18.2711  18.3802  18.6001  18.6004
    19.1565  19.2089  19.2091  19.2623  19.4883  19.4929  19.4929  19.4978
    20.5971  20.5980

          k =-0.3333 0.3333-0.3333 ( 21842 PWs)   bands (ev):

   -87.0334 -87.0331 -87.0330 -71.0241 -71.0240 -71.0240 -70.8786 -70.8771
   -70.8762 -70.8742 -70.8732 -70.8721 -70.8710 -70.8689 -70.8687 -70.8672
   -70.8671 -70.8670 -70.8669 -70.8666 -70.8664 -70.8658 -70.8657 -70.8652
   -70.7601 -70.7588 -70.7586 -70.7582 -70.7572 -70.7521 -70.7223 -70.7189
   -70.7184 -70.7178 -70.7171 -70.7165 -70.6873 -70.6869 -70.6865 -70.6859
   -70.6857 -70.6857 -70.6856 -70.6853 -70.6846 -70.6844 -70.6839 -70.6839
   -70.6824 -70.6816 -70.6814 -70.6796 -70.6787 -70.6776 -47.2069 -47.2042
   -47.2031 -47.2017 -47.1999 -47.1989 -47.1975 -47.1962 -47.1954 -37.1513
   -37.1485 -37.1476 -37.0202 -37.0191 -37.0145 -37.0084 -37.0009 -36.9960
   -36.9828 -36.9818 -36.9816 -36.9763 -36.9712 -36.9709 -36.9696 -36.9642
   -36.9619 -36.9610 -36.9585 -36.9515 -36.9507 -36.9486 -36.9472 -36.9468
   -36.9442 -36.9437 -36.9434 -36.9350 -36.9345 -36.9328 -36.9236 -36.9213
   -36.9151 -36.9129 -36.9092 -36.9040 -36.9027 -36.8993 -36.8982 -36.8980
   -36.8946 -36.8928 -36.8906 -36.8892 -36.8876 -36.8837 -36.8794 -36.8777
   -36.8746 -36.8740 -36.8688 -36.8685 -36.8633 -36.8582 -36.8580 -36.8561
   -36.8535 -36.8460 -36.8420 -36.8414 -36.8413 -36.8392 -36.8133 -36.8121
   -36.8118 -36.8073 -36.8011 -36.7998 -36.7980 -36.7979 -36.7946 -36.7945
   -36.7893 -36.7882 -36.7868 -36.7868 -36.7785 -36.7783 -36.7559 -36.7498
   -36.7091 -36.7081 -36.7029 -36.6990 -36.6980 -36.6944 -36.6937 -36.6926
   -36.6891 -36.6866 -36.6865 -36.6854 -36.6835 -36.6832 -36.6824 -36.6815
   -36.6778 -36.6772 -36.6763 -36.6758 -36.6733 -36.6728 -36.6697 -36.6677
   -36.6638 -36.6631 -36.6605 -36.6585 -36.6579 -36.6552 -36.6546 -36.6542
   -36.6456 -36.6454 -36.6415 -36.6392 -36.6370 -36.6365 -36.6352 -36.6342
   -36.6322 -36.6313 -36.6281 -36.6273 -36.6263 -36.6256 -36.6243 -36.6216
   -36.6205 -36.6201 -36.6177 -36.6164 -36.6131 -36.6123 -36.6116 -36.6081
   -36.6073 -36.6067 -36.6032 -36.6030 -36.6007 -36.5995 -36.5951 -36.5911
   -36.5904 -36.5863 -36.5850 -36.5849 -36.5838 -36.5796 -36.5795 -36.5790
     9.8431  10.4782  10.5232  10.5718  11.1050  11.1483  11.1941  11.7482
    12.5366  12.5804  12.6242  12.7322  12.7440  12.7715  12.8000  12.8136
    12.8144  12.8226  12.8249  12.8257  12.8614  12.8681  12.8684  13.0625
    13.0705  13.1377  13.1602  13.1729  13.2058  13.2106  13.2213  13.2639
    13.2650  13.2659  13.2832  13.2859  13.2923  13.3016  13.3032  13.3102
    13.3120  13.3193  13.3245  13.3328  13.3384  13.3424  13.3486  13.3589
    13.3666  13.4381  13.4501  13.4563  13.5443  13.5578  13.5774  13.6527
    13.6654  13.6883  13.7962  13.8015  13.9415  13.9827  13.9962  14.0250
    14.0268  14.0358  14.0486  14.0530  14.0660  14.0771  14.0844  14.0977
    14.1004  14.1166  14.1202  14.1211  14.1296  14.1297  14.1421  14.1482
    14.1529  14.2195  14.2200  14.2331  14.2589  14.2958  14.2978  14.3114
    14.3237  14.3303  14.3337  14.3468  14.3684  14.3727  14.3902  14.4267
    14.4371  14.4620  14.4630  14.4739  14.4837  14.4909  14.5226  14.5480
    14.5607  14.5786  14.6255  14.6292  14.6603  14.6940  14.6966  14.7346
    14.7403  14.7568  14.7609  14.7623  14.7769  14.7803  14.8016  14.8220
    14.8279  14.8338  14.8415  14.8556  14.8576  14.8600  14.8707  14.8738
    14.8761  14.8773  14.8827  14.8926  14.8929  14.9021  14.9021  14.9617
    14.9697  15.0059  15.0102  15.0133  15.1188  15.1488  15.2005  15.2438
    15.2582  15.2614  15.2940  15.3452  15.3550  15.3572  15.3639  15.3985
    15.5387  15.5638  15.5913  15.6519  15.6713  15.6824  15.7050  15.7289
    15.7631  15.7945  15.7949  15.8044  15.8050  15.8316  15.8509  15.8786
    15.8852  15.8963  15.9026  15.9244  15.9351  15.9518  15.9621  15.9862
    15.9915  16.0206  16.0306  16.0431  16.0502  16.0520  16.0576  16.0725
    16.0822  16.1071  16.1201  16.1356  16.1756  16.1818  16.1828  16.1876
    16.1988  16.1988  16.2014  16.2204  16.2224  16.2490  16.2700  16.2707
    16.2716  16.2813  16.3009  16.3216  16.3247  16.3333  16.3345  16.3417
    16.3533  16.3571  16.3621  16.3714  16.3811  16.3856  16.3906  16.3940
    16.3992  16.4117  16.4168  16.4271  16.4336  16.4353  16.4664  16.4719
    16.4789  16.4809  16.4811  16.4838  16.4904  16.4931  16.5008  16.5013
    16.5109  16.5286  16.5387  16.5465  16.5578  16.5667  16.5932  16.5939
    16.5979  16.6229  16.6273  16.6280  16.6432  16.6930  16.7070  16.7172
    16.7313  16.7350  16.7388  16.7563  16.7588  16.7801  16.7888  16.8124
    16.8152  16.8220  16.8249  16.8267  16.8349  16.8541  16.9480  16.9494
    16.9506  16.9574  16.9797  16.9901  17.0048  17.0132  17.1480  17.1637
    17.1660  17.1917  17.2068  17.2264  17.2424  17.2497  17.2776  17.2875
    17.2893  17.5613  17.5645  17.5671  17.6210  17.6246  17.6413  18.3372
    18.3581  18.3764  18.4892  18.5050  18.5221  18.6659  18.7294  18.7892
    18.9727  18.9930  19.0075  19.0278  19.0540  19.0732  19.3411  19.3784
    19.4219  19.7986

          k = 0.3333-0.3333-0.3333 ( 21842 PWs)   bands (ev):

   -87.0334 -87.0331 -87.0330 -71.0241 -71.0240 -71.0240 -70.8791 -70.8760
   -70.8760 -70.8737 -70.8736 -70.8734 -70.8713 -70.8679 -70.8679 -70.8679
   -70.8679 -70.8664 -70.8664 -70.8663 -70.8662 -70.8659 -70.8659 -70.8658
   -70.7598 -70.7598 -70.7595 -70.7566 -70.7566 -70.7528 -70.7211 -70.7197
   -70.7197 -70.7179 -70.7163 -70.7163 -70.6867 -70.6865 -70.6865 -70.6865
   -70.6865 -70.6853 -70.6853 -70.6849 -70.6849 -70.6849 -70.6838 -70.6837
   -70.6817 -70.6813 -70.6813 -70.6801 -70.6801 -70.6766 -47.2080 -47.2079
   -47.2037 -47.2016 -47.2015 -47.1970 -47.1951 -47.1951 -47.1939 -37.1498
   -37.1493 -37.1472 -37.0222 -37.0222 -37.0108 -37.0108 -36.9947 -36.9947
   -36.9890 -36.9807 -36.9806 -36.9727 -36.9701 -36.9701 -36.9685 -36.9629
   -36.9590 -36.9590 -36.9566 -36.9563 -36.9547 -36.9547 -36.9529 -36.9506
   -36.9505 -36.9374 -36.9374 -36.9318 -36.9303 -36.9271 -36.9271 -36.9204
   -36.9204 -36.9161 -36.9161 -36.9011 -36.9011 -36.9009 -36.9009 -36.9005
   -36.8918 -36.8888 -36.8887 -36.8887 -36.8829 -36.8806 -36.8790 -36.8790
   -36.8723 -36.8723 -36.8663 -36.8663 -36.8648 -36.8636 -36.8636 -36.8538
   -36.8538 -36.8533 -36.8504 -36.8486 -36.8423 -36.8423 -36.8029 -36.8029
   -36.8027 -36.8026 -36.8017 -36.7995 -36.7994 -36.7940 -36.7901 -36.7901
   -36.7895 -36.7860 -36.7860 -36.7800 -36.7795 -36.7792 -36.7792 -36.7592
   -36.7086 -36.7086 -36.7074 -36.7012 -36.6931 -36.6930 -36.6929 -36.6929
   -36.6895 -36.6895 -36.6893 -36.6893 -36.6889 -36.6828 -36.6813 -36.6810
   -36.6801 -36.6801 -36.6780 -36.6722 -36.6718 -36.6698 -36.6698 -36.6609
   -36.6599 -36.6599 -36.6589 -36.6573 -36.6573 -36.6485 -36.6485 -36.6467
   -36.6467 -36.6455 -36.6407 -36.6379 -36.6379 -36.6362 -36.6358 -36.6358
   -36.6355 -36.6340 -36.6340 -36.6298 -36.6298 -36.6258 -36.6251 -36.6251
   -36.6241 -36.6194 -36.6156 -36.6156 -36.6132 -36.6115 -36.6098 -36.6098
   -36.6051 -36.6051 -36.6039 -36.6039 -36.6022 -36.5948 -36.5948 -36.5946
   -36.5946 -36.5888 -36.5835 -36.5835 -36.5825 -36.5825 -36.5780 -36.5755
     9.8444  10.4372  10.5718  10.5718  11.0551  11.1940  11.1940  11.7434
    12.5080  12.6248  12.6248  12.6906  12.7484  12.7949  12.7950  12.8056
    12.8057  12.8176  12.8177  12.8552  12.8561  12.8733  12.8733  13.0608
    13.0608  13.1441  13.1765  13.1765  13.2059  13.2414  13.2414  13.2449
    13.2645  13.2645  13.2676  13.2676  13.2774  13.2774  13.2818  13.3210
    13.3210  13.3239  13.3239  13.3369  13.3481  13.3533  13.3569  13.3584
    13.3584  13.4369  13.4369  13.4648  13.5289  13.5755  13.5755  13.6567
    13.6567  13.7071  13.7904  13.7904  13.9244  13.9995  13.9995  14.0037
    14.0349  14.0349  14.0544  14.0803  14.0803  14.0846  14.0846  14.0879
    14.1028  14.1028  14.1255  14.1255  14.1406  14.1437  14.1437  14.1556
    14.1818  14.2239  14.2283  14.2283  14.2415  14.2415  14.2774  14.2956
    14.2956  14.3004  14.3334  14.3388  14.3388  14.4142  14.4142  14.4235
    14.4641  14.4641  14.4656  14.4656  14.4955  14.4955  14.4955  14.5703
    14.5768  14.5853  14.5853  14.6633  14.6764  14.6984  14.6984  14.7225
    14.7429  14.7429  14.7660  14.7660  14.7789  14.7925  14.7925  14.8249
    14.8321  14.8376  14.8376  14.8518  14.8518  14.8529  14.8529  14.8746
    14.8764  14.8977  14.8977  14.9067  14.9067  14.9110  14.9164  14.9587
    14.9587  14.9790  14.9790  14.9927  15.0741  15.1877  15.1878  15.2388
    15.2388  15.2420  15.3290  15.3290  15.3363  15.4126  15.4126  15.4129
    15.5332  15.6157  15.6157  15.6215  15.6216  15.7228  15.7228  15.7420
    15.7575  15.7575  15.7802  15.7802  15.7918  15.8082  15.8082  15.8365
    15.8950  15.9151  15.9166  15.9392  15.9393  15.9639  15.9639  15.9811
    15.9811  15.9980  16.0358  16.0358  16.0688  16.0781  16.0781  16.0905
    16.0997  16.1101  16.1230  16.1230  16.1314  16.1347  16.1347  16.2109
    16.2109  16.2157  16.2261  16.2317  16.2418  16.2418  16.2541  16.2542
    16.2934  16.2935  16.2961  16.2961  16.3054  16.3054  16.3207  16.3374
    16.3460  16.3460  16.3609  16.3827  16.3828  16.3862  16.3954  16.4022
    16.4022  16.4196  16.4282  16.4282  16.4472  16.4577  16.4655  16.4655
    16.4815  16.4815  16.4877  16.4877  16.5023  16.5023  16.5228  16.5271
    16.5372  16.5372  16.5496  16.5743  16.5743  16.5888  16.5888  16.5900
    16.5900  16.6040  16.6040  16.6246  16.6547  16.6827  16.6827  16.6961
    16.7217  16.7277  16.7277  16.7444  16.7672  16.7820  16.7830  16.7830
    16.7991  16.7991  16.8021  16.8021  16.8443  16.9264  16.9265  16.9509
    16.9509  16.9612  17.0037  17.0037  17.0056  17.0393  17.1166  17.1914
    17.1914  17.1951  17.1951  17.2062  17.2334  17.2334  17.2892  17.2892
    17.2985  17.5229  17.5229  17.5664  17.6513  17.6513  17.6646  18.3348
    18.3348  18.4039  18.4875  18.4875  18.5315  18.6073  18.7935  18.7935
    18.9537  18.9589  18.9590  19.0674  19.0675  19.1066  19.3456  19.3456
    19.4561  19.7424

 ------ SPIN DOWN ----------


          k = 0.0000 0.0000 0.0000 ( 21879 PWs)   bands (ev):

   -85.5999 -85.5995 -85.5992 -67.6658 -67.6599 -67.6598 -67.6442 -67.6275
   -67.6275 -67.6274 -67.6274 -67.6176 -67.6176 -67.6141 -67.6141 -67.6141
   -67.6141 -67.6120 -67.6119 -67.6119 -67.6119 -67.6090 -67.6090 -67.6074
   -67.6009 -67.5952 -67.5952 -67.5951 -67.5951 -67.5926 -67.5673 -67.5673
   -67.5672 -67.5672 -67.5664 -67.5658 -67.5441 -67.5441 -67.5435 -67.5435
   -67.5435 -67.5435 -67.5428 -67.5426 -67.5426 -67.5426 -67.5426 -67.5401
   -67.5401 -67.5376 -67.5375 -67.5375 -67.5375 -67.5181 -45.7766 -45.7765
   -45.7731 -45.7731 -45.7730 -45.7730 -45.7693 -45.7692 -45.7655 -33.9022
   -33.9022 -33.9019 -33.8987 -33.8987 -33.8925 -33.8924 -33.8897 -33.8897
   -33.8897 -33.8897 -33.8714 -33.8437 -33.8436 -33.8422 -33.8411 -33.8411
   -33.8410 -33.8410 -33.8297 -33.8297 -33.8279 -33.8219 -33.8195 -33.8195
   -33.8195 -33.8195 -33.8189 -33.8189 -33.8178 -33.8178 -33.8172 -33.8017
   -33.8016 -33.8016 -33.8016 -33.7983 -33.7983 -33.7969 -33.7969 -33.7963
   -33.7962 -33.7944 -33.7943 -33.7943 -33.7943 -33.7928 -33.7928 -33.7894
   -33.7820 -33.7819 -33.7726 -33.7726 -33.7726 -33.7726 -33.7647 -33.7647
   -33.7431 -33.7431 -33.7338 -33.7338 -33.7338 -33.7338 -33.7335 -33.7335
   -33.7295 -33.7295 -33.7295 -33.7294 -33.7079 -33.7024 -33.6965 -33.6965
   -33.6917 -33.6917 -33.6902 -33.6902 -33.6894 -33.6894 -33.6894 -33.6894
   -33.6170 -33.6170 -33.6152 -33.6152 -33.6151 -33.6151 -33.6125 -33.6124
   -33.6124 -33.6124 -33.6118 -33.6117 -33.6111 -33.6094 -33.6094 -33.6008
   -33.6007 -33.6006 -33.6006 -33.6002 -33.6002 -33.6001 -33.6001 -33.5961
   -33.5961 -33.5942 -33.5942 -33.5941 -33.5941 -33.5920 -33.5920 -33.5909
   -33.5909 -33.5894 -33.5839 -33.5839 -33.5838 -33.5838 -33.5831 -33.5810
   -33.5801 -33.5801 -33.5768 -33.5768 -33.5755 -33.5755 -33.5665 -33.5665
   -33.5664 -33.5664 -33.5600 -33.5599 -33.5599 -33.5599 -33.5540 -33.5539
   -33.5523 -33.5277 -33.5107 -33.5107 -33.5107 -33.5107 -33.5106 -33.5106
   -33.5057 -33.5046 -33.5042 -33.5042 -33.5010 -33.5010 -33.4999 -33.4998
     9.2667  11.2594  11.2596  11.4262  11.4262  11.4265  11.4265  12.7506
    12.8505  12.8507  12.9583  12.9583  12.9675  12.9675  12.9767  12.9767
    12.9768  12.9769  13.0011  14.3621  14.4259  14.4264  14.4521  14.4522
    14.4526  14.4528  14.5003  14.5003  14.5032  14.6235  14.6236  14.6238
    14.6239  14.7269  14.7560  14.7562  14.7600  14.7600  14.7965  14.7967
    14.7970  14.7971  14.8209  14.8216  14.8395  14.8395  14.8485  15.3475
    15.3475  15.3478  15.3478  15.3697  15.3975  15.3976  15.5027  15.5027
    15.5895  15.5895  15.5895  15.5895  15.7265  15.7714  15.7715  15.8733
    15.8734  15.9012  15.9013  15.9013  15.9013  15.9526  15.9526  16.0413
    16.0414  16.0418  16.0418  16.0757  16.0760  16.0921  16.0921  16.1056
    16.1056  16.1057  16.1057  16.1361  16.1364  16.1371  16.1373  16.1376
    16.1376  16.1412  16.1415  16.1435  16.1435  16.1474  16.2871  16.2871
    16.3645  16.3645  16.3646  16.3646  16.4005  16.4178  16.4178  16.4308
    16.4309  16.4310  16.4311  16.4739  16.4739  16.4915  16.4947  16.4949
    16.5677  16.5677  16.5677  16.5684  16.5684  16.6724  16.6725  16.7002
    16.7002  16.8641  16.8641  16.8642  16.8642  16.9374  16.9438  16.9438
    16.9547  16.9588  16.9588  16.9663  16.9753  16.9753  16.9754  16.9754
    16.9917  16.9918  17.0107  17.0107  17.0605  17.3319  17.3319  17.3321
    17.3321  17.3625  17.3625  17.4734  17.4830  17.4830  17.5563  17.5565
    17.5590  17.5591  17.5592  17.5593  17.7007  17.7008  17.7009  17.7009
    17.9235  17.9235  18.0179  18.0179  18.0180  18.0180  18.0325  18.0327
    18.2069  18.2071  18.3719  18.3720  18.3724  18.3724  18.3725  18.3725
    18.4811  18.4811  18.4811  18.4811  18.5035  18.5370  18.5370  18.5525
    18.5527  18.5540  18.5541  18.5542  18.5542  18.6496  18.6496  18.6680
    18.6770  18.6770  18.7881  18.7881  18.7882  18.7882  19.0989  19.1190
    19.1190  19.1747  19.1747  19.1916  19.1933  19.1933  19.2381  19.2382
    19.2382  19.2382  19.2848  19.2848  19.3184  19.3184  19.3282  19.3282
    19.3283  19.3284  19.4712  19.4712  19.4820  19.4820  19.4822  19.4823
    19.4968  19.4968  19.4968  19.4968  19.4988  19.4989  19.4991  19.4991
    19.5004  19.5006  19.5265  19.5265  19.5466  19.5466  19.5656  19.5656
    19.5656  19.5656  19.5670  19.5671  19.5677  19.5677  19.5678  19.5678
    19.5690  19.5692  19.5710  19.5710  19.5748  19.5794  19.5794  19.5894
    19.5894  19.6026  19.6026  19.6027  19.6027  19.6079  19.6169  19.6187
    19.6195  19.6195  19.6212  19.6213  19.7080  19.8370  19.8370  19.8371
    19.8371  19.8807  19.8809  20.0580  20.0580  20.1924  20.2253  20.2253
    20.2254  20.2254  20.3009  20.3009  20.3508  20.3534  20.3535  20.3561
    20.3561  21.3102  21.3343  21.3344  21.3346  21.3347  21.4198  21.4202
    21.4300  21.6252  21.6256  21.6267  21.6269  21.6273  21.6274  21.7693
    21.7880  21.7969

          k = 0.0000 0.0000 0.3333 ( 21891 PWs)   bands (ev):

   -85.5999 -85.5995 -85.5992 -67.6640 -67.6609 -67.6598 -67.6431 -67.6377
   -67.6273 -67.6248 -67.6216 -67.6193 -67.6185 -67.6172 -67.6155 -67.6135
   -67.6124 -67.6119 -67.6109 -67.6106 -67.6105 -67.6101 -67.6088 -67.6081
   -67.5981 -67.5955 -67.5946 -67.5942 -67.5940 -67.5929 -67.5701 -67.5681
   -67.5669 -67.5664 -67.5663 -67.5662 -67.5464 -67.5450 -67.5448 -67.5445
   -67.5439 -67.5435 -67.5428 -67.5427 -67.5417 -67.5415 -67.5414 -67.5412
   -67.5402 -67.5394 -67.5390 -67.5370 -67.5281 -67.5207 -45.7775 -45.7765
   -45.7758 -45.7755 -45.7734 -45.7726 -45.7721 -45.7687 -45.7637 -33.9022
   -33.9006 -33.8994 -33.8954 -33.8852 -33.8835 -33.8786 -33.8778 -33.8749
   -33.8687 -33.8687 -33.8680 -33.8674 -33.8652 -33.8613 -33.8566 -33.8495
   -33.8485 -33.8474 -33.8472 -33.8393 -33.8388 -33.8386 -33.8375 -33.8364
   -33.8336 -33.8303 -33.8287 -33.8285 -33.8273 -33.8256 -33.8220 -33.8216
   -33.8189 -33.8178 -33.8159 -33.8123 -33.8046 -33.7920 -33.7882 -33.7865
   -33.7853 -33.7802 -33.7730 -33.7694 -33.7620 -33.7614 -33.7577 -33.7544
   -33.7535 -33.7525 -33.7516 -33.7503 -33.7498 -33.7473 -33.7424 -33.7416
   -33.7404 -33.7361 -33.7356 -33.7344 -33.7330 -33.7305 -33.7250 -33.7224
   -33.7184 -33.7167 -33.7141 -33.7110 -33.7090 -33.7075 -33.7047 -33.7028
   -33.7022 -33.7019 -33.6960 -33.6910 -33.6840 -33.6839 -33.6829 -33.6804
   -33.6779 -33.6635 -33.6608 -33.6587 -33.6540 -33.6498 -33.6418 -33.6417
   -33.6395 -33.6351 -33.6348 -33.6285 -33.6233 -33.6164 -33.6149 -33.6142
   -33.6139 -33.6127 -33.6122 -33.6061 -33.6042 -33.6033 -33.6020 -33.5982
   -33.5943 -33.5892 -33.5890 -33.5888 -33.5855 -33.5841 -33.5834 -33.5818
   -33.5809 -33.5777 -33.5724 -33.5723 -33.5711 -33.5693 -33.5692 -33.5672
   -33.5615 -33.5594 -33.5581 -33.5570 -33.5564 -33.5546 -33.5538 -33.5533
   -33.5527 -33.5495 -33.5488 -33.5486 -33.5453 -33.5438 -33.5421 -33.5419
   -33.5399 -33.5364 -33.5323 -33.5227 -33.5223 -33.5220 -33.5211 -33.5208
   -33.5200 -33.5184 -33.5163 -33.5159 -33.5151 -33.5129 -33.5121 -33.5114
     9.5099  10.2359  11.5037  11.5231  11.6284  11.6288  12.0892  12.1005
    12.1967  12.1971  12.7486  13.0986  13.1311  13.1442  13.1766  13.6395
    13.6684  13.7140  13.7144  13.7175  13.7269  13.7338  13.7512  14.0354
    14.2623  14.2685  14.2840  14.2976  14.6783  14.6853  14.7542  14.7766
    14.7803  14.8101  14.8613  14.8874  14.9129  14.9172  14.9368  14.9541
    14.9793  14.9926  15.0009  15.0048  15.0281  15.0764  15.0926  15.1794
    15.2065  15.2536  15.2882  15.2892  15.3041  15.3299  15.3745  15.3746
    15.4341  15.4812  15.4946  15.5468  15.6422  15.7390  15.7647  15.7709
    15.8034  15.8055  15.8126  15.8619  15.9030  15.9090  15.9336  15.9337
    15.9633  15.9857  15.9873  16.0206  16.0289  16.0386  16.1283  16.1325
    16.1638  16.1794  16.1949  16.1995  16.2102  16.2103  16.2231  16.2359
    16.2645  16.2898  16.3120  16.3143  16.3201  16.3437  16.3518  16.3534
    16.3588  16.3593  16.3608  16.3834  16.3948  16.4101  16.4160  16.4230
    16.4384  16.4387  16.4772  16.4782  16.4891  16.5257  16.5306  16.5312
    16.5733  16.5768  16.6464  16.6688  16.6801  16.6819  16.7175  16.7318
    16.7604  16.7710  16.7806  16.7835  16.8200  16.8701  16.8760  16.9006
    16.9015  16.9446  16.9495  17.0029  17.0087  17.0483  17.0575  17.0787
    17.0825  17.0898  17.1171  17.1519  17.1643  17.1896  17.1940  17.2219
    17.2464  17.2748  17.3006  17.3399  17.3825  17.4123  17.4296  17.4306
    17.4414  17.4875  17.5563  17.5972  17.6092  17.6649  17.8478  17.8490
    17.9083  17.9106  17.9281  17.9622  17.9722  17.9777  17.9845  18.0760
    18.0897  18.1156  18.2790  18.2881  18.3060  18.3218  18.3484  18.3973
    18.3984  18.4646  18.4690  18.4735  18.4996  18.5014  18.5322  18.5780
    18.6222  18.6601  18.6605  18.6855  18.7716  18.8196  18.8267  18.8311
    18.8801  18.8871  18.8954  18.9320  18.9461  18.9665  18.9994  19.0069
    19.0081  19.0442  19.0463  19.0479  19.0490  19.0658  19.1299  19.1357
    19.1775  19.1921  19.1922  19.2034  19.2096  19.2257  19.2286  19.2405
    19.2890  19.2901  19.3047  19.3656  19.3717  19.3889  19.4027  19.4410
    19.4435  19.4654  19.4761  19.4851  19.5256  19.5286  19.5334  19.5377
    19.5531  19.5582  19.5603  19.5753  19.5840  19.5843  19.5949  19.6015
    19.6074  19.6087  19.6125  19.6454  19.6474  19.6493  19.6496  19.6557
    19.6589  19.6694  19.6755  19.6791  19.6849  19.6891  19.7007  19.7051
    19.7441  19.7471  19.7660  19.7684  19.7726  19.7733  19.7914  19.7922
    19.7949  19.8004  19.8278  19.8282  19.8719  19.8771  19.9008  19.9331
    19.9345  19.9529  19.9587  19.9862  19.9884  20.0115  20.0295  20.0412
    20.0454  20.1147  20.1294  20.1698  20.1709  20.1740  20.2475  20.2498
    20.2631  20.4939  20.5389  20.5445  20.5539  20.5814  20.6008  20.6266
    20.6634  20.6682  21.8494  21.8563  21.8643  21.8703  22.2191  22.2291
    22.2722  22.2756

          k = 0.0000 0.3333 0.3333 ( 21886 PWs)   bands (ev):

   -85.5999 -85.5995 -85.5992 -67.6627 -67.6609 -67.6600 -67.6410 -67.6396
   -67.6303 -67.6299 -67.6199 -67.6194 -67.6180 -67.6160 -67.6157 -67.6142
   -67.6114 -67.6109 -67.6106 -67.6106 -67.6101 -67.6098 -67.6082 -67.6079
   -67.5960 -67.5955 -67.5941 -67.5938 -67.5932 -67.5931 -67.5718 -67.5694
   -67.5671 -67.5668 -67.5660 -67.5659 -67.5464 -67.5462 -67.5462 -67.5459
   -67.5448 -67.5446 -67.5434 -67.5428 -67.5426 -67.5418 -67.5415 -67.5410
   -67.5400 -67.5399 -67.5337 -67.5317 -67.5286 -67.5230 -45.7819 -45.7770
   -45.7740 -45.7738 -45.7731 -45.7725 -45.7718 -45.7661 -45.7640 -33.9158
   -33.9122 -33.8918 -33.8893 -33.8872 -33.8814 -33.8696 -33.8694 -33.8692
   -33.8688 -33.8686 -33.8679 -33.8668 -33.8602 -33.8594 -33.8582 -33.8573
   -33.8570 -33.8567 -33.8566 -33.8540 -33.8530 -33.8469 -33.8440 -33.8435
   -33.8404 -33.8296 -33.8283 -33.8279 -33.8277 -33.8222 -33.8181 -33.8141
   -33.8130 -33.8091 -33.8063 -33.8039 -33.7981 -33.7978 -33.7850 -33.7847
   -33.7804 -33.7800 -33.7759 -33.7654 -33.7651 -33.7632 -33.7620 -33.7570
   -33.7533 -33.7528 -33.7519 -33.7494 -33.7475 -33.7456 -33.7441 -33.7404
   -33.7392 -33.7372 -33.7338 -33.7332 -33.7322 -33.7274 -33.7273 -33.7259
   -33.7236 -33.7220 -33.7177 -33.7170 -33.7167 -33.7098 -33.7054 -33.6946
   -33.6936 -33.6914 -33.6905 -33.6904 -33.6894 -33.6873 -33.6849 -33.6762
   -33.6667 -33.6618 -33.6565 -33.6546 -33.6535 -33.6512 -33.6445 -33.6394
   -33.6384 -33.6346 -33.6345 -33.6243 -33.6232 -33.6222 -33.6218 -33.6195
   -33.6188 -33.6159 -33.6111 -33.6089 -33.6086 -33.6008 -33.6004 -33.5998
   -33.5974 -33.5973 -33.5937 -33.5936 -33.5910 -33.5899 -33.5885 -33.5847
   -33.5839 -33.5814 -33.5797 -33.5747 -33.5719 -33.5684 -33.5649 -33.5648
   -33.5589 -33.5577 -33.5567 -33.5543 -33.5515 -33.5483 -33.5473 -33.5472
   -33.5461 -33.5449 -33.5409 -33.5402 -33.5396 -33.5391 -33.5390 -33.5368
   -33.5356 -33.5301 -33.5299 -33.5268 -33.5265 -33.5259 -33.5231 -33.5219
   -33.5213 -33.5208 -33.5198 -33.5181 -33.5156 -33.5080 -33.5071 -33.5053
     9.7571  10.4123  10.5264  11.1299  11.7779  11.7853  12.2955  12.3043
    12.4056  12.4057  12.8687  12.9271  12.9307  12.9526  13.2672  13.3351
    13.8533  13.8749  13.9152  13.9200  13.9675  14.1142  14.1283  14.1491
    14.2403  14.3508  14.3634  14.3678  14.4161  14.4165  14.4604  14.4657
    14.5123  14.5370  14.8004  14.8237  14.8244  14.8388  14.8400  14.8761
    14.9427  14.9537  15.0323  15.0801  15.1097  15.1260  15.1282  15.1474
    15.1558  15.1740  15.2438  15.2562  15.2960  15.3581  15.3786  15.4065
    15.4143  15.4504  15.5093  15.5215  15.5571  15.6298  15.6570  15.6960
    15.7294  15.7532  15.7912  15.8235  15.8238  15.8961  15.9190  15.9353
    15.9485  15.9497  15.9589  16.0385  16.0751  16.0872  16.1080  16.1098
    16.1403  16.1815  16.1828  16.2243  16.2451  16.2830  16.2982  16.3097
    16.3253  16.3471  16.3554  16.3637  16.3816  16.3829  16.3957  16.4110
    16.4301  16.4381  16.4650  16.4766  16.4852  16.4861  16.4911  16.5070
    16.5094  16.5191  16.5362  16.5474  16.5504  16.5913  16.6019  16.6491
    16.6548  16.6866  16.7033  16.7157  16.7297  16.7316  16.7474  16.7573
    16.8212  16.8263  16.8400  16.8408  16.8582  16.8634  16.8652  16.8717
    16.8730  16.8947  16.9085  16.9118  16.9777  16.9841  16.9853  16.9918
    17.0335  17.0344  17.0566  17.0759  17.0816  17.1032  17.1162  17.1190
    17.1875  17.2322  17.2418  17.2531  17.3197  17.3291  17.3929  17.4014
    17.4125  17.5442  17.6029  17.6131  17.6252  17.6725  17.6846  17.7726
    17.8324  17.9274  17.9286  17.9493  17.9593  17.9717  17.9830  18.0006
    18.1260  18.2154  18.2369  18.3604  18.3758  18.4700  18.4836  18.5150
    18.5241  18.5256  18.5824  18.6183  18.6749  18.6796  18.7371  18.7401
    18.7666  18.7672  18.7766  18.7816  18.8155  18.8271  18.8408  18.8783
    18.9048  18.9267  18.9516  18.9717  18.9807  19.0037  19.0177  19.0192
    19.0407  19.0470  19.0627  19.0780  19.1288  19.1441  19.1518  19.1644
    19.1714  19.1840  19.1973  19.2028  19.2030  19.2137  19.2177  19.2361
    19.2489  19.2718  19.2914  19.3031  19.3047  19.3204  19.3348  19.3670
    19.3679  19.3816  19.3908  19.4151  19.4267  19.4348  19.4414  19.4513
    19.4859  19.4915  19.5210  19.5432  19.5707  19.5713  19.5721  19.5769
    19.5822  19.6064  19.6112  19.6284  19.6471  19.6516  19.6550  19.6590
    19.6655  19.6660  19.6738  19.6767  19.6851  19.6869  19.6888  19.6949
    19.7006  19.7091  19.7167  19.7227  19.7245  19.7315  19.7480  19.7482
    19.7564  19.7584  19.7704  19.8648  19.8672  19.8823  19.8901  19.8954
    19.9058  19.9170  19.9216  19.9229  19.9508  19.9739  19.9771  19.9994
    20.0021  20.0299  20.0571  20.1037  20.1474  20.1861  20.2688  20.3271
    20.3934  20.4093  20.5007  20.5012  20.5426  20.5743  20.6861  20.7104
    21.2472  21.2583  21.2910  21.2918  21.3178  21.3303  21.3684  21.3727
    22.1555  22.1605

          k = 0.3333 0.3333 0.3333 ( 21842 PWs)   bands (ev):

   -85.5999 -85.5995 -85.5992 -67.6616 -67.6607 -67.6605 -67.6408 -67.6367
   -67.6341 -67.6286 -67.6283 -67.6201 -67.6185 -67.6183 -67.6130 -67.6119
   -67.6104 -67.6101 -67.6098 -67.6097 -67.6091 -67.6090 -67.6084 -67.6077
   -67.5953 -67.5941 -67.5936 -67.5934 -67.5932 -67.5918 -67.5745 -67.5689
   -67.5678 -67.5677 -67.5673 -67.5642 -67.5472 -67.5468 -67.5461 -67.5459
   -67.5456 -67.5456 -67.5455 -67.5449 -67.5446 -67.5442 -67.5395 -67.5377
   -67.5370 -67.5354 -67.5331 -67.5302 -67.5298 -67.5253 -45.7756 -45.7744
   -45.7731 -45.7724 -45.7704 -45.7698 -45.7672 -45.7649 -45.7620 -33.9127
   -33.9070 -33.9062 -33.9010 -33.9003 -33.8906 -33.8777 -33.8724 -33.8693
   -33.8684 -33.8628 -33.8623 -33.8617 -33.8603 -33.8597 -33.8591 -33.8537
   -33.8528 -33.8516 -33.8478 -33.8451 -33.8413 -33.8409 -33.8373 -33.8372
   -33.8347 -33.8257 -33.8255 -33.8245 -33.8241 -33.8192 -33.8182 -33.8165
   -33.8150 -33.8145 -33.8141 -33.8046 -33.8014 -33.7988 -33.7979 -33.7955
   -33.7891 -33.7835 -33.7770 -33.7761 -33.7736 -33.7714 -33.7682 -33.7656
   -33.7591 -33.7585 -33.7584 -33.7567 -33.7416 -33.7413 -33.7391 -33.7389
   -33.7342 -33.7236 -33.7235 -33.7204 -33.7193 -33.7168 -33.7154 -33.7144
   -33.7126 -33.7090 -33.7087 -33.7059 -33.7046 -33.7023 -33.6963 -33.6955
   -33.6949 -33.6941 -33.6932 -33.6914 -33.6908 -33.6875 -33.6859 -33.6857
   -33.6668 -33.6591 -33.6531 -33.6494 -33.6477 -33.6476 -33.6428 -33.6426
   -33.6410 -33.6394 -33.6382 -33.6352 -33.6350 -33.6348 -33.6311 -33.6291
   -33.6283 -33.6261 -33.6257 -33.6205 -33.6200 -33.6169 -33.6116 -33.6082
   -33.5951 -33.5930 -33.5923 -33.5859 -33.5840 -33.5774 -33.5744 -33.5739
   -33.5726 -33.5680 -33.5677 -33.5655 -33.5624 -33.5622 -33.5608 -33.5571
   -33.5557 -33.5530 -33.5530 -33.5517 -33.5501 -33.5499 -33.5495 -33.5494
   -33.5445 -33.5436 -33.5410 -33.5408 -33.5389 -33.5383 -33.5378 -33.5359
   -33.5357 -33.5347 -33.5318 -33.5291 -33.5269 -33.5235 -33.5203 -33.5199
   -33.5195 -33.5181 -33.5180 -33.5178 -33.5175 -33.5168 -33.5163 -33.5140
     9.9984  10.6431  10.6969  10.7581  11.3107  11.3629  11.4166  11.9979
    13.0104  13.0670  13.1155  13.4430  13.4453  13.4475  13.5187  13.5212
    13.5248  13.9203  13.9361  13.9774  14.1237  14.1393  14.1520  14.2534
    14.2632  14.2660  14.2906  14.2989  14.3184  14.3716  14.4236  14.4304
    14.4671  14.4894  14.5410  14.6379  14.6713  14.6723  14.7514  14.7639
    14.7651  14.8022  14.8128  14.8404  14.9378  14.9957  15.0677  15.0814
    15.0846  15.2155  15.2806  15.2842  15.3087  15.3460  15.3758  15.3873
    15.4842  15.4882  15.5013  15.5062  15.5222  15.5291  15.6197  15.6226
    15.6336  15.6726  15.7495  15.7637  15.7668  15.8392  15.9341  15.9434
    15.9509  16.0375  16.0465  16.1052  16.1071  16.1412  16.1560  16.1630
    16.1743  16.1757  16.1853  16.1897  16.2357  16.2385  16.2618  16.2630
    16.2803  16.3220  16.3222  16.3255  16.3490  16.3649  16.3702  16.4157
    16.4426  16.4668  16.4804  16.5071  16.5105  16.5194  16.5457  16.5713
    16.5892  16.6033  16.6357  16.6413  16.6427  16.7217  16.7281  16.7372
    16.7480  16.7688  16.7749  16.7754  16.7904  16.8013  16.8066  16.8178
    16.8338  16.8342  16.8440  16.8688  16.8743  16.8760  16.8883  16.9147
    16.9230  16.9255  16.9565  16.9738  16.9771  16.9883  17.0091  17.0479
    17.0858  17.1002  17.1159  17.1534  17.1672  17.1776  17.2082  17.2100
    17.2236  17.2414  17.2678  17.3020  17.3225  17.3277  17.3324  17.3374
    17.3824  17.3910  17.4163  17.4408  17.4594  17.4688  17.8149  17.8208
    17.8744  17.8985  17.9033  17.9050  17.9291  17.9490  17.9609  18.0847
    18.2176  18.2363  18.2810  18.3221  18.3682  18.3712  18.4177  18.4360
    18.5077  18.5132  18.5627  18.5663  18.5914  18.7011  18.7077  18.7304
    18.7449  18.7861  18.8321  18.8372  18.8477  18.8606  18.8687  18.8901
    18.9053  18.9133  18.9371  18.9475  18.9501  18.9654  18.9939  19.0633
    19.0733  19.0772  19.0998  19.1014  19.1213  19.1421  19.1645  19.1693
    19.1732  19.2085  19.2272  19.2342  19.2382  19.2470  19.2785  19.2963
    19.3310  19.3344  19.3462  19.3501  19.3596  19.3640  19.3673  19.4028
    19.4133  19.4206  19.4366  19.4466  19.4574  19.4586  19.4672  19.4710
    19.5020  19.5038  19.5065  19.5258  19.5331  19.5338  19.5547  19.5570
    19.5923  19.6071  19.6129  19.6148  19.6210  19.6299  19.6437  19.6519
    19.6641  19.6692  19.6707  19.6725  19.6750  19.6765  19.6800  19.6853
    19.6858  19.6912  19.6965  19.7130  19.7239  19.7241  19.7305  19.7414
    19.7430  19.7745  19.7751  19.7779  19.7833  19.7856  19.8367  19.8568
    19.8851  19.9173  19.9235  19.9568  19.9738  19.9828  20.0273  20.0304
    20.0363  20.0944  20.0948  20.1138  20.1484  20.1602  20.1644  20.6013
    20.6470  20.6818  20.7116  20.7178  20.7235  20.7562  20.7878  20.8515
    21.0239  21.0431  21.0477  21.0857  21.0930  21.1018  21.1235  21.1333
    21.1780  21.7196

          k = 0.3333 0.0000 0.0000 ( 21891 PWs)   bands (ev):

   -85.5999 -85.5995 -85.5992 -67.6640 -67.6609 -67.6598 -67.6431 -67.6377
   -67.6273 -67.6248 -67.6216 -67.6193 -67.6185 -67.6172 -67.6155 -67.6135
   -67.6124 -67.6119 -67.6109 -67.6107 -67.6105 -67.6101 -67.6088 -67.6081
   -67.5981 -67.5955 -67.5946 -67.5941 -67.5941 -67.5929 -67.5701 -67.5681
   -67.5669 -67.5664 -67.5663 -67.5662 -67.5464 -67.5450 -67.5448 -67.5445
   -67.5440 -67.5435 -67.5428 -67.5427 -67.5417 -67.5415 -67.5414 -67.5413
   -67.5402 -67.5394 -67.5390 -67.5370 -67.5281 -67.5207 -45.7775 -45.7765
   -45.7758 -45.7755 -45.7734 -45.7727 -45.7721 -45.7687 -45.7637 -33.9022
   -33.9006 -33.8994 -33.8954 -33.8852 -33.8835 -33.8786 -33.8778 -33.8749
   -33.8687 -33.8687 -33.8680 -33.8674 -33.8652 -33.8613 -33.8566 -33.8495
   -33.8485 -33.8474 -33.8472 -33.8393 -33.8388 -33.8386 -33.8375 -33.8364
   -33.8336 -33.8303 -33.8287 -33.8285 -33.8273 -33.8256 -33.8220 -33.8216
   -33.8189 -33.8178 -33.8159 -33.8123 -33.8046 -33.7920 -33.7882 -33.7865
   -33.7853 -33.7802 -33.7730 -33.7694 -33.7620 -33.7614 -33.7577 -33.7544
   -33.7535 -33.7525 -33.7516 -33.7503 -33.7498 -33.7473 -33.7424 -33.7416
   -33.7404 -33.7361 -33.7355 -33.7344 -33.7330 -33.7305 -33.7250 -33.7224
   -33.7184 -33.7167 -33.7141 -33.7110 -33.7090 -33.7075 -33.7047 -33.7028
   -33.7022 -33.7019 -33.6960 -33.6910 -33.6840 -33.6839 -33.6829 -33.6804
   -33.6778 -33.6635 -33.6608 -33.6587 -33.6540 -33.6498 -33.6418 -33.6417
   -33.6395 -33.6351 -33.6348 -33.6285 -33.6233 -33.6164 -33.6149 -33.6142
   -33.6139 -33.6127 -33.6122 -33.6061 -33.6042 -33.6033 -33.6020 -33.5982
   -33.5943 -33.5892 -33.5890 -33.5888 -33.5854 -33.5841 -33.5834 -33.5818
   -33.5809 -33.5777 -33.5724 -33.5723 -33.5711 -33.5693 -33.5692 -33.5672
   -33.5615 -33.5594 -33.5581 -33.5570 -33.5564 -33.5545 -33.5538 -33.5533
   -33.5527 -33.5495 -33.5488 -33.5486 -33.5453 -33.5438 -33.5421 -33.5419
   -33.5399 -33.5364 -33.5323 -33.5227 -33.5223 -33.5220 -33.5211 -33.5208
   -33.5200 -33.5183 -33.5163 -33.5159 -33.5151 -33.5129 -33.5121 -33.5114
     9.5099  10.2359  11.5037  11.5231  11.6284  11.6287  12.0893  12.1005
    12.1967  12.1971  12.7486  13.0986  13.1311  13.1442  13.1766  13.6395
    13.6684  13.7141  13.7143  13.7175  13.7269  13.7338  13.7512  14.0354
    14.2623  14.2684  14.2840  14.2976  14.6783  14.6853  14.7542  14.7766
    14.7803  14.8101  14.8614  14.8874  14.9129  14.9172  14.9368  14.9541
    14.9793  14.9926  15.0010  15.0048  15.0281  15.0764  15.0926  15.1794
    15.2065  15.2536  15.2882  15.2892  15.3041  15.3299  15.3744  15.3746
    15.4341  15.4812  15.4946  15.5468  15.6422  15.7390  15.7647  15.7709
    15.8034  15.8056  15.8126  15.8619  15.9030  15.9090  15.9336  15.9337
    15.9633  15.9857  15.9873  16.0206  16.0289  16.0386  16.1283  16.1325
    16.1638  16.1794  16.1949  16.1995  16.2102  16.2103  16.2231  16.2360
    16.2645  16.2898  16.3120  16.3143  16.3201  16.3437  16.3519  16.3533
    16.3588  16.3593  16.3608  16.3834  16.3948  16.4101  16.4160  16.4230
    16.4384  16.4387  16.4772  16.4782  16.4891  16.5257  16.5306  16.5312
    16.5733  16.5768  16.6464  16.6688  16.6801  16.6819  16.7175  16.7318
    16.7604  16.7710  16.7806  16.7835  16.8200  16.8701  16.8760  16.9006
    16.9015  16.9446  16.9495  17.0029  17.0087  17.0483  17.0575  17.0787
    17.0825  17.0898  17.1171  17.1519  17.1643  17.1896  17.1940  17.2219
    17.2464  17.2748  17.3006  17.3399  17.3825  17.4123  17.4297  17.4306
    17.4414  17.4875  17.5563  17.5973  17.6092  17.6649  17.8478  17.8490
    17.9083  17.9106  17.9281  17.9622  17.9722  17.9777  17.9845  18.0760
    18.0898  18.1156  18.2790  18.2881  18.3060  18.3218  18.3484  18.3973
    18.3984  18.4646  18.4690  18.4735  18.4996  18.5014  18.5322  18.5780
    18.6222  18.6601  18.6605  18.6855  18.7716  18.8196  18.8267  18.8311
    18.8801  18.8871  18.8954  18.9320  18.9461  18.9665  18.9994  19.0069
    19.0081  19.0442  19.0463  19.0479  19.0490  19.0658  19.1299  19.1357
    19.1775  19.1921  19.1922  19.2034  19.2096  19.2257  19.2286  19.2405
    19.2890  19.2901  19.3047  19.3655  19.3717  19.3889  19.4027  19.4410
    19.4435  19.4654  19.4761  19.4851  19.5256  19.5286  19.5334  19.5377
    19.5530  19.5582  19.5603  19.5753  19.5840  19.5843  19.5949  19.6015
    19.6074  19.6087  19.6125  19.6454  19.6474  19.6493  19.6495  19.6557
    19.6589  19.6694  19.6755  19.6791  19.6849  19.6891  19.7007  19.7051
    19.7442  19.7471  19.7660  19.7684  19.7726  19.7733  19.7914  19.7922
    19.7949  19.8004  19.8278  19.8282  19.8719  19.8771  19.9008  19.9331
    19.9345  19.9529  19.9587  19.9862  19.9884  20.0115  20.0295  20.0412
    20.0454  20.1147  20.1294  20.1698  20.1709  20.1740  20.2475  20.2498
    20.2631  20.4939  20.5389  20.5445  20.5539  20.5814  20.6008  20.6266
    20.6634  20.6682  21.8494  21.8563  21.8644  21.8703  22.2077  22.2192
    22.2592  22.2724

          k = 0.0000 0.3333-0.3333 ( 21886 PWs)   bands (ev):

   -85.5999 -85.5995 -85.5992 -67.6624 -67.6606 -67.6606 -67.6427 -67.6351
   -67.6351 -67.6265 -67.6205 -67.6205 -67.6190 -67.6145 -67.6145 -67.6133
   -67.6133 -67.6123 -67.6106 -67.6106 -67.6094 -67.6094 -67.6089 -67.6073
   -67.5966 -67.5939 -67.5939 -67.5938 -67.5938 -67.5931 -67.5711 -67.5710
   -67.5670 -67.5664 -67.5659 -67.5658 -67.5468 -67.5467 -67.5456 -67.5455
   -67.5454 -67.5441 -67.5434 -67.5431 -67.5431 -67.5411 -67.5410 -67.5408
   -67.5402 -67.5401 -67.5354 -67.5295 -67.5295 -67.5231 -45.7769 -45.7757
   -45.7756 -45.7740 -45.7739 -45.7731 -45.7721 -45.7719 -45.7608 -33.9182
   -33.9104 -33.8900 -33.8882 -33.8882 -33.8876 -33.8707 -33.8707 -33.8686
   -33.8679 -33.8670 -33.8667 -33.8624 -33.8623 -33.8617 -33.8617 -33.8594
   -33.8572 -33.8560 -33.8560 -33.8514 -33.8514 -33.8421 -33.8420 -33.8419
   -33.8414 -33.8286 -33.8286 -33.8261 -33.8247 -33.8247 -33.8165 -33.8165
   -33.8109 -33.8109 -33.8025 -33.8025 -33.8010 -33.7924 -33.7924 -33.7843
   -33.7842 -33.7758 -33.7674 -33.7670 -33.7669 -33.7656 -33.7656 -33.7612
   -33.7590 -33.7552 -33.7552 -33.7482 -33.7482 -33.7434 -33.7434 -33.7419
   -33.7412 -33.7398 -33.7398 -33.7329 -33.7329 -33.7309 -33.7269 -33.7268
   -33.7186 -33.7157 -33.7156 -33.7152 -33.7112 -33.7111 -33.7098 -33.6979
   -33.6979 -33.6909 -33.6900 -33.6900 -33.6884 -33.6838 -33.6837 -33.6781
   -33.6605 -33.6604 -33.6541 -33.6504 -33.6504 -33.6443 -33.6443 -33.6431
   -33.6353 -33.6315 -33.6315 -33.6278 -33.6254 -33.6254 -33.6213 -33.6213
   -33.6185 -33.6135 -33.6117 -33.6117 -33.6070 -33.6070 -33.6057 -33.6038
   -33.6038 -33.5931 -33.5931 -33.5904 -33.5903 -33.5885 -33.5867 -33.5866
   -33.5807 -33.5807 -33.5752 -33.5750 -33.5749 -33.5718 -33.5636 -33.5636
   -33.5604 -33.5604 -33.5563 -33.5556 -33.5510 -33.5510 -33.5470 -33.5470
   -33.5437 -33.5434 -33.5434 -33.5429 -33.5416 -33.5416 -33.5407 -33.5360
   -33.5342 -33.5342 -33.5277 -33.5277 -33.5263 -33.5240 -33.5216 -33.5216
   -33.5216 -33.5212 -33.5163 -33.5163 -33.5117 -33.5111 -33.5069 -33.5046
     9.7562  10.4669  10.4669  11.1381  11.7775  11.7777  12.3233  12.3513
    12.3513  12.3901  12.8867  12.8868  12.9508  12.9509  13.3009  13.3010
    13.8683  13.8985  13.8985  13.9077  13.9717  14.1231  14.1356  14.1356
    14.2997  14.2998  14.3421  14.3577  14.4066  14.4067  14.4638  14.4638
    14.5044  14.5408  14.8171  14.8196  14.8452  14.8453  14.8971  14.8973
    14.8975  14.9831  15.0275  15.0279  15.1180  15.1181  15.1208  15.1776
    15.1789  15.1791  15.2103  15.2105  15.2338  15.3771  15.3772  15.4399
    15.4402  15.4485  15.5171  15.5479  15.5481  15.6559  15.6559  15.6771
    15.6773  15.7015  15.8153  15.8856  15.8857  15.8906  15.9005  15.9006
    15.9305  15.9386  15.9386  16.0625  16.0625  16.1086  16.1087  16.1481
    16.1652  16.1654  16.1861  16.1980  16.2633  16.2636  16.2915  16.2916
    16.3034  16.3591  16.3799  16.3802  16.3826  16.3934  16.4077  16.4077
    16.4223  16.4318  16.4319  16.4580  16.4581  16.4671  16.4964  16.5180
    16.5181  16.5370  16.5371  16.5413  16.5683  16.5686  16.6519  16.6545
    16.6629  16.6629  16.7096  16.7096  16.7357  16.7589  16.7590  16.7998
    16.7999  16.8046  16.8320  16.8423  16.8424  16.8574  16.8606  16.8685
    16.8686  16.8965  16.9263  16.9263  16.9447  16.9533  16.9534  17.0182
    17.0407  17.0407  17.0531  17.0533  17.0930  17.0931  17.1217  17.1650
    17.1855  17.1856  17.2797  17.2797  17.3037  17.3037  17.3177  17.4278
    17.5295  17.5295  17.5411  17.6202  17.6328  17.6329  17.6838  17.8863
    17.8863  17.9165  17.9166  17.9282  17.9809  17.9826  17.9826  17.9942
    18.0647  18.0647  18.3614  18.3614  18.3944  18.4446  18.4627  18.4627
    18.5110  18.5110  18.5751  18.5751  18.6875  18.7192  18.7506  18.7507
    18.7620  18.7620  18.8023  18.8024  18.8148  18.8148  18.8428  18.8778
    18.8778  18.9274  18.9274  18.9912  19.0070  19.0070  19.0116  19.0441
    19.0442  19.0638  19.0757  19.0758  19.1049  19.1049  19.1175  19.1191
    19.1956  19.2063  19.2064  19.2290  19.2388  19.2417  19.2417  19.2554
    19.2833  19.2881  19.2981  19.2982  19.3361  19.3362  19.3375  19.3633
    19.3837  19.3838  19.3888  19.4168  19.4212  19.4500  19.4501  19.4631
    19.4632  19.4645  19.5203  19.5205  19.5516  19.5593  19.5595  19.5936
    19.6086  19.6086  19.6197  19.6198  19.6404  19.6461  19.6462  19.6588
    19.6609  19.6610  19.6674  19.6675  19.6810  19.6810  19.6823  19.6874
    19.6877  19.7014  19.7062  19.7062  19.7232  19.7327  19.7328  19.7434
    19.7585  19.7586  19.8246  19.8247  19.8625  19.8626  19.8769  19.8973
    19.9079  19.9079  19.9322  19.9524  19.9525  19.9682  19.9682  20.0194
    20.0195  20.0426  20.0559  20.0672  20.0672  20.2276  20.2360  20.3808
    20.4453  20.4456  20.4456  20.4618  20.5571  20.5571  20.7013  20.7013
    21.1495  21.2415  21.2416  21.3333  21.3799  21.3801  21.3802  21.3838
    22.1568  22.1575

          k = 0.3333-0.3333 0.0000 ( 21886 PWs)   bands (ev):

   -85.5999 -85.5995 -85.5992 -67.6627 -67.6609 -67.6600 -67.6410 -67.6395
   -67.6303 -67.6299 -67.6199 -67.6194 -67.6180 -67.6160 -67.6157 -67.6142
   -67.6114 -67.6109 -67.6106 -67.6106 -67.6101 -67.6098 -67.6082 -67.6079
   -67.5960 -67.5955 -67.5941 -67.5938 -67.5931 -67.5931 -67.5718 -67.5694
   -67.5671 -67.5668 -67.5660 -67.5659 -67.5464 -67.5462 -67.5462 -67.5459
   -67.5448 -67.5446 -67.5434 -67.5428 -67.5426 -67.5418 -67.5414 -67.5410
   -67.5400 -67.5400 -67.5337 -67.5317 -67.5286 -67.5230 -45.7819 -45.7771
   -45.7740 -45.7738 -45.7731 -45.7725 -45.7718 -45.7661 -45.7640 -33.9158
   -33.9121 -33.8918 -33.8893 -33.8872 -33.8814 -33.8696 -33.8694 -33.8692
   -33.8688 -33.8686 -33.8679 -33.8668 -33.8602 -33.8594 -33.8582 -33.8573
   -33.8570 -33.8567 -33.8566 -33.8540 -33.8530 -33.8469 -33.8440 -33.8435
   -33.8404 -33.8296 -33.8284 -33.8279 -33.8277 -33.8222 -33.8181 -33.8141
   -33.8130 -33.8091 -33.8064 -33.8039 -33.7981 -33.7978 -33.7850 -33.7847
   -33.7804 -33.7800 -33.7759 -33.7654 -33.7651 -33.7632 -33.7620 -33.7570
   -33.7533 -33.7528 -33.7519 -33.7494 -33.7475 -33.7456 -33.7442 -33.7404
   -33.7392 -33.7372 -33.7338 -33.7332 -33.7322 -33.7274 -33.7273 -33.7259
   -33.7236 -33.7220 -33.7177 -33.7170 -33.7167 -33.7098 -33.7054 -33.6946
   -33.6936 -33.6914 -33.6905 -33.6904 -33.6894 -33.6873 -33.6849 -33.6762
   -33.6667 -33.6618 -33.6565 -33.6546 -33.6535 -33.6512 -33.6445 -33.6394
   -33.6384 -33.6346 -33.6345 -33.6243 -33.6232 -33.6222 -33.6218 -33.6195
   -33.6188 -33.6159 -33.6111 -33.6089 -33.6085 -33.6008 -33.6004 -33.5998
   -33.5974 -33.5973 -33.5937 -33.5936 -33.5910 -33.5899 -33.5885 -33.5847
   -33.5839 -33.5814 -33.5797 -33.5747 -33.5719 -33.5684 -33.5649 -33.5648
   -33.5590 -33.5577 -33.5567 -33.5543 -33.5515 -33.5483 -33.5473 -33.5472
   -33.5461 -33.5449 -33.5409 -33.5402 -33.5396 -33.5391 -33.5390 -33.5368
   -33.5356 -33.5301 -33.5299 -33.5268 -33.5265 -33.5259 -33.5231 -33.5219
   -33.5213 -33.5208 -33.5198 -33.5181 -33.5156 -33.5080 -33.5071 -33.5053
     9.7571  10.4123  10.5265  11.1299  11.7779  11.7853  12.2955  12.3043
    12.4056  12.4057  12.8687  12.9271  12.9307  12.9526  13.2672  13.3351
    13.8533  13.8749  13.9153  13.9200  13.9675  14.1143  14.1283  14.1491
    14.2403  14.3508  14.3634  14.3678  14.4161  14.4165  14.4604  14.4657
    14.5122  14.5370  14.8004  14.8237  14.8244  14.8388  14.8400  14.8761
    14.9427  14.9537  15.0323  15.0801  15.1097  15.1260  15.1282  15.1474
    15.1558  15.1740  15.2438  15.2563  15.2960  15.3581  15.3786  15.4065
    15.4143  15.4505  15.5093  15.5214  15.5571  15.6298  15.6570  15.6960
    15.7294  15.7532  15.7912  15.8235  15.8238  15.8961  15.9190  15.9353
    15.9485  15.9497  15.9589  16.0385  16.0751  16.0872  16.1080  16.1098
    16.1403  16.1815  16.1828  16.2243  16.2451  16.2830  16.2982  16.3097
    16.3253  16.3471  16.3554  16.3637  16.3816  16.3829  16.3957  16.4110
    16.4301  16.4381  16.4650  16.4766  16.4852  16.4861  16.4911  16.5070
    16.5094  16.5191  16.5362  16.5474  16.5504  16.5913  16.6019  16.6491
    16.6548  16.6866  16.7033  16.7157  16.7297  16.7316  16.7474  16.7573
    16.8213  16.8263  16.8400  16.8408  16.8582  16.8634  16.8652  16.8717
    16.8730  16.8947  16.9085  16.9118  16.9777  16.9841  16.9853  16.9918
    17.0335  17.0344  17.0566  17.0759  17.0816  17.1032  17.1162  17.1190
    17.1875  17.2322  17.2418  17.2531  17.3197  17.3291  17.3929  17.4014
    17.4125  17.5442  17.6029  17.6131  17.6252  17.6725  17.6846  17.7726
    17.8324  17.9273  17.9286  17.9493  17.9593  17.9717  17.9830  18.0006
    18.1260  18.2154  18.2369  18.3604  18.3758  18.4700  18.4836  18.5150
    18.5241  18.5256  18.5824  18.6183  18.6749  18.6796  18.7371  18.7401
    18.7666  18.7672  18.7766  18.7816  18.8155  18.8271  18.8408  18.8783
    18.9048  18.9267  18.9516  18.9717  18.9807  19.0037  19.0177  19.0192
    19.0407  19.0470  19.0627  19.0780  19.1288  19.1441  19.1518  19.1644
    19.1714  19.1840  19.1973  19.2028  19.2030  19.2137  19.2177  19.2361
    19.2488  19.2717  19.2914  19.3030  19.3047  19.3204  19.3348  19.3670
    19.3679  19.3816  19.3908  19.4151  19.4267  19.4348  19.4414  19.4513
    19.4859  19.4915  19.5210  19.5432  19.5707  19.5713  19.5721  19.5769
    19.5822  19.6063  19.6112  19.6284  19.6471  19.6516  19.6550  19.6590
    19.6655  19.6660  19.6738  19.6767  19.6851  19.6869  19.6888  19.6949
    19.7006  19.7091  19.7167  19.7227  19.7245  19.7315  19.7480  19.7482
    19.7564  19.7584  19.7704  19.8648  19.8672  19.8823  19.8901  19.8954
    19.9058  19.9170  19.9217  19.9229  19.9508  19.9739  19.9771  19.9994
    20.0021  20.0299  20.0571  20.1037  20.1474  20.1861  20.2688  20.3271
    20.3934  20.4093  20.5007  20.5012  20.5426  20.5743  20.6861  20.7104
    21.2472  21.2583  21.2910  21.2918  21.3178  21.3303  21.3684  21.3727
    22.1555  22.1605

          k =-0.3333-0.3333 0.0000 ( 21886 PWs)   bands (ev):

   -85.5999 -85.5995 -85.5992 -67.6624 -67.6606 -67.6606 -67.6427 -67.6351
   -67.6351 -67.6265 -67.6205 -67.6205 -67.6190 -67.6145 -67.6145 -67.6133
   -67.6133 -67.6123 -67.6107 -67.6106 -67.6094 -67.6094 -67.6089 -67.6073
   -67.5966 -67.5939 -67.5939 -67.5938 -67.5938 -67.5931 -67.5711 -67.5710
   -67.5670 -67.5664 -67.5659 -67.5658 -67.5468 -67.5467 -67.5456 -67.5455
   -67.5454 -67.5441 -67.5434 -67.5431 -67.5430 -67.5411 -67.5410 -67.5408
   -67.5401 -67.5401 -67.5354 -67.5295 -67.5295 -67.5231 -45.7770 -45.7757
   -45.7756 -45.7740 -45.7739 -45.7730 -45.7721 -45.7719 -45.7608 -33.9182
   -33.9104 -33.8900 -33.8882 -33.8882 -33.8876 -33.8707 -33.8707 -33.8686
   -33.8679 -33.8670 -33.8667 -33.8624 -33.8623 -33.8617 -33.8616 -33.8594
   -33.8572 -33.8560 -33.8560 -33.8514 -33.8514 -33.8421 -33.8420 -33.8419
   -33.8414 -33.8286 -33.8286 -33.8261 -33.8247 -33.8247 -33.8165 -33.8165
   -33.8109 -33.8109 -33.8025 -33.8024 -33.8010 -33.7924 -33.7924 -33.7843
   -33.7842 -33.7758 -33.7674 -33.7670 -33.7669 -33.7656 -33.7656 -33.7612
   -33.7590 -33.7552 -33.7552 -33.7482 -33.7482 -33.7434 -33.7434 -33.7419
   -33.7412 -33.7398 -33.7398 -33.7329 -33.7329 -33.7309 -33.7269 -33.7268
   -33.7186 -33.7157 -33.7156 -33.7152 -33.7112 -33.7111 -33.7098 -33.6979
   -33.6979 -33.6909 -33.6900 -33.6900 -33.6884 -33.6838 -33.6837 -33.6781
   -33.6605 -33.6605 -33.6541 -33.6504 -33.6504 -33.6443 -33.6443 -33.6431
   -33.6353 -33.6315 -33.6315 -33.6278 -33.6254 -33.6254 -33.6213 -33.6212
   -33.6185 -33.6135 -33.6117 -33.6117 -33.6070 -33.6070 -33.6057 -33.6038
   -33.6037 -33.5931 -33.5931 -33.5904 -33.5903 -33.5885 -33.5866 -33.5866
   -33.5807 -33.5807 -33.5752 -33.5750 -33.5749 -33.5718 -33.5636 -33.5635
   -33.5604 -33.5604 -33.5563 -33.5556 -33.5510 -33.5510 -33.5470 -33.5470
   -33.5437 -33.5434 -33.5434 -33.5429 -33.5416 -33.5416 -33.5407 -33.5360
   -33.5342 -33.5342 -33.5277 -33.5276 -33.5263 -33.5240 -33.5216 -33.5216
   -33.5216 -33.5212 -33.5163 -33.5163 -33.5117 -33.5111 -33.5069 -33.5046
     9.7562  10.4669  10.4669  11.1381  11.7775  11.7777  12.3233  12.3513
    12.3513  12.3901  12.8867  12.8868  12.9508  12.9509  13.3009  13.3010
    13.8683  13.8985  13.8985  13.9077  13.9717  14.1231  14.1355  14.1356
    14.2997  14.2998  14.3421  14.3577  14.4066  14.4067  14.4637  14.4639
    14.5044  14.5408  14.8171  14.8196  14.8452  14.8453  14.8971  14.8973
    14.8975  14.9831  15.0276  15.0278  15.1180  15.1181  15.1208  15.1776
    15.1789  15.1791  15.2103  15.2105  15.2338  15.3771  15.3773  15.4399
    15.4402  15.4485  15.5171  15.5479  15.5481  15.6559  15.6559  15.6772
    15.6773  15.7015  15.8153  15.8855  15.8858  15.8906  15.9006  15.9006
    15.9305  15.9386  15.9386  16.0625  16.0625  16.1086  16.1087  16.1481
    16.1652  16.1654  16.1861  16.1980  16.2634  16.2636  16.2915  16.2916
    16.3034  16.3591  16.3799  16.3802  16.3826  16.3934  16.4077  16.4078
    16.4223  16.4317  16.4320  16.4580  16.4581  16.4671  16.4964  16.5180
    16.5181  16.5370  16.5371  16.5413  16.5683  16.5686  16.6519  16.6545
    16.6628  16.6629  16.7095  16.7096  16.7357  16.7589  16.7590  16.7998
    16.8000  16.8046  16.8320  16.8423  16.8424  16.8574  16.8606  16.8685
    16.8686  16.8965  16.9262  16.9263  16.9447  16.9533  16.9534  17.0182
    17.0407  17.0407  17.0531  17.0532  17.0930  17.0931  17.1217  17.1650
    17.1855  17.1856  17.2797  17.2797  17.3037  17.3037  17.3177  17.4278
    17.5295  17.5296  17.5411  17.6202  17.6328  17.6329  17.6838  17.8863
    17.8863  17.9165  17.9166  17.9282  17.9809  17.9826  17.9827  17.9942
    18.0647  18.0647  18.3614  18.3614  18.3944  18.4446  18.4627  18.4627
    18.5110  18.5111  18.5751  18.5751  18.6875  18.7192  18.7506  18.7507
    18.7620  18.7620  18.8023  18.8024  18.8148  18.8149  18.8428  18.8778
    18.8778  18.9273  18.9274  18.9912  19.0070  19.0070  19.0116  19.0441
    19.0442  19.0638  19.0757  19.0758  19.1049  19.1049  19.1175  19.1191
    19.1956  19.2063  19.2064  19.2290  19.2388  19.2417  19.2418  19.2554
    19.2833  19.2881  19.2981  19.2982  19.3361  19.3362  19.3375  19.3632
    19.3837  19.3838  19.3888  19.4168  19.4212  19.4500  19.4501  19.4631
    19.4632  19.4645  19.5203  19.5205  19.5516  19.5593  19.5595  19.5936
    19.6086  19.6086  19.6197  19.6198  19.6404  19.6461  19.6462  19.6588
    19.6609  19.6610  19.6674  19.6675  19.6810  19.6810  19.6823  19.6874
    19.6877  19.7014  19.7061  19.7062  19.7232  19.7327  19.7328  19.7434
    19.7585  19.7586  19.8247  19.8247  19.8625  19.8625  19.8769  19.8973
    19.9079  19.9079  19.9322  19.9524  19.9525  19.9682  19.9682  20.0194
    20.0195  20.0426  20.0559  20.0672  20.0673  20.2276  20.2360  20.3808
    20.4453  20.4456  20.4456  20.4618  20.5571  20.5571  20.7012  20.7014
    21.1495  21.2415  21.2417  21.3333  21.3799  21.3801  21.3802  21.3838
    22.1568  22.1574

          k =-0.3333 0.3333-0.3333 ( 21842 PWs)   bands (ev):

   -85.5999 -85.5995 -85.5992 -67.6616 -67.6607 -67.6605 -67.6408 -67.6367
   -67.6341 -67.6286 -67.6283 -67.6201 -67.6185 -67.6183 -67.6130 -67.6119
   -67.6104 -67.6101 -67.6098 -67.6097 -67.6091 -67.6090 -67.6084 -67.6077
   -67.5953 -67.5941 -67.5935 -67.5934 -67.5932 -67.5918 -67.5745 -67.5689
   -67.5678 -67.5677 -67.5673 -67.5642 -67.5472 -67.5468 -67.5461 -67.5459
   -67.5456 -67.5456 -67.5455 -67.5449 -67.5446 -67.5442 -67.5395 -67.5377
   -67.5370 -67.5354 -67.5331 -67.5302 -67.5298 -67.5253 -45.7756 -45.7744
   -45.7731 -45.7724 -45.7704 -45.7698 -45.7672 -45.7649 -45.7620 -33.9127
   -33.9070 -33.9062 -33.9010 -33.9003 -33.8906 -33.8777 -33.8724 -33.8693
   -33.8684 -33.8628 -33.8623 -33.8617 -33.8603 -33.8597 -33.8591 -33.8537
   -33.8528 -33.8516 -33.8478 -33.8451 -33.8413 -33.8409 -33.8373 -33.8372
   -33.8347 -33.8257 -33.8255 -33.8245 -33.8241 -33.8193 -33.8182 -33.8165
   -33.8150 -33.8145 -33.8141 -33.8047 -33.8014 -33.7988 -33.7979 -33.7955
   -33.7891 -33.7835 -33.7770 -33.7761 -33.7736 -33.7714 -33.7682 -33.7656
   -33.7591 -33.7585 -33.7584 -33.7567 -33.7416 -33.7413 -33.7391 -33.7389
   -33.7342 -33.7236 -33.7235 -33.7203 -33.7193 -33.7168 -33.7154 -33.7144
   -33.7127 -33.7090 -33.7087 -33.7058 -33.7046 -33.7023 -33.6963 -33.6955
   -33.6949 -33.6941 -33.6932 -33.6914 -33.6908 -33.6875 -33.6859 -33.6857
   -33.6668 -33.6591 -33.6531 -33.6494 -33.6477 -33.6476 -33.6428 -33.6426
   -33.6410 -33.6394 -33.6382 -33.6352 -33.6350 -33.6348 -33.6311 -33.6291
   -33.6283 -33.6261 -33.6257 -33.6205 -33.6200 -33.6169 -33.6116 -33.6082
   -33.5951 -33.5930 -33.5923 -33.5859 -33.5840 -33.5774 -33.5744 -33.5739
   -33.5726 -33.5680 -33.5677 -33.5655 -33.5624 -33.5622 -33.5608 -33.5571
   -33.5557 -33.5530 -33.5530 -33.5517 -33.5501 -33.5499 -33.5495 -33.5494
   -33.5445 -33.5436 -33.5410 -33.5408 -33.5390 -33.5383 -33.5378 -33.5359
   -33.5357 -33.5347 -33.5318 -33.5291 -33.5269 -33.5235 -33.5203 -33.5199
   -33.5195 -33.5181 -33.5180 -33.5178 -33.5175 -33.5168 -33.5163 -33.5140
     9.9984  10.6431  10.6969  10.7581  11.3107  11.3629  11.4166  11.9978
    13.0104  13.0670  13.1155  13.4430  13.4453  13.4475  13.5187  13.5213
    13.5249  13.9203  13.9361  13.9774  14.1237  14.1393  14.1520  14.2534
    14.2632  14.2660  14.2906  14.2989  14.3184  14.3716  14.4236  14.4304
    14.4672  14.4894  14.5410  14.6379  14.6713  14.6723  14.7514  14.7639
    14.7651  14.8022  14.8128  14.8404  14.9378  14.9957  15.0677  15.0814
    15.0846  15.2155  15.2806  15.2842  15.3087  15.3460  15.3758  15.3873
    15.4842  15.4882  15.5013  15.5062  15.5222  15.5291  15.6197  15.6226
    15.6336  15.6726  15.7495  15.7636  15.7668  15.8392  15.9341  15.9434
    15.9509  16.0375  16.0465  16.1052  16.1071  16.1412  16.1560  16.1630
    16.1743  16.1757  16.1853  16.1897  16.2357  16.2385  16.2618  16.2630
    16.2803  16.3221  16.3222  16.3255  16.3490  16.3649  16.3702  16.4157
    16.4426  16.4668  16.4804  16.5071  16.5105  16.5194  16.5457  16.5713
    16.5892  16.6033  16.6357  16.6413  16.6427  16.7217  16.7281  16.7372
    16.7480  16.7688  16.7749  16.7754  16.7904  16.8013  16.8066  16.8178
    16.8338  16.8342  16.8440  16.8688  16.8743  16.8760  16.8883  16.9147
    16.9230  16.9255  16.9565  16.9738  16.9771  16.9883  17.0091  17.0479
    17.0858  17.1002  17.1159  17.1534  17.1671  17.1776  17.2082  17.2100
    17.2236  17.2414  17.2678  17.3020  17.3225  17.3277  17.3324  17.3374
    17.3824  17.3910  17.4163  17.4408  17.4594  17.4688  17.8149  17.8208
    17.8744  17.8985  17.9033  17.9050  17.9291  17.9490  17.9609  18.0847
    18.2176  18.2363  18.2810  18.3221  18.3682  18.3712  18.4177  18.4360
    18.5077  18.5132  18.5627  18.5663  18.5914  18.7011  18.7077  18.7304
    18.7449  18.7861  18.8321  18.8373  18.8477  18.8606  18.8687  18.8901
    18.9053  18.9133  18.9371  18.9475  18.9501  18.9654  18.9939  19.0633
    19.0733  19.0772  19.0998  19.1014  19.1212  19.1421  19.1645  19.1693
    19.1732  19.2085  19.2272  19.2342  19.2382  19.2470  19.2785  19.2963
    19.3310  19.3344  19.3462  19.3501  19.3595  19.3640  19.3673  19.4028
    19.4133  19.4206  19.4366  19.4466  19.4574  19.4586  19.4672  19.4710
    19.5020  19.5039  19.5065  19.5258  19.5331  19.5338  19.5547  19.5570
    19.5923  19.6071  19.6129  19.6148  19.6210  19.6299  19.6437  19.6519
    19.6641  19.6692  19.6707  19.6725  19.6750  19.6765  19.6800  19.6853
    19.6858  19.6912  19.6965  19.7130  19.7239  19.7241  19.7305  19.7414
    19.7430  19.7745  19.7751  19.7779  19.7833  19.7856  19.8367  19.8568
    19.8851  19.9173  19.9235  19.9568  19.9738  19.9828  20.0273  20.0304
    20.0363  20.0944  20.0948  20.1138  20.1484  20.1602  20.1644  20.6013
    20.6470  20.6818  20.7116  20.7178  20.7235  20.7562  20.7878  20.8515
    21.0239  21.0431  21.0477  21.0857  21.0930  21.1018  21.1235  21.1333
    21.1780  21.7196

          k = 0.3333-0.3333-0.3333 ( 21842 PWs)   bands (ev):

   -85.5999 -85.5995 -85.5992 -67.6621 -67.6607 -67.6600 -67.6389 -67.6365
   -67.6365 -67.6290 -67.6290 -67.6219 -67.6175 -67.6153 -67.6112 -67.6112
   -67.6112 -67.6111 -67.6103 -67.6103 -67.6089 -67.6086 -67.6086 -67.6080
   -67.5944 -67.5944 -67.5939 -67.5934 -67.5934 -67.5931 -67.5729 -67.5693
   -67.5693 -67.5671 -67.5671 -67.5645 -67.5465 -67.5465 -67.5465 -67.5465
   -67.5458 -67.5452 -67.5451 -67.5451 -67.5449 -67.5449 -67.5386 -67.5385
   -67.5349 -67.5348 -67.5348 -67.5305 -67.5305 -67.5248 -45.7793 -45.7792
   -45.7731 -45.7731 -45.7691 -45.7668 -45.7667 -45.7627 -45.7597 -33.9118
   -33.9111 -33.9111 -33.8935 -33.8903 -33.8903 -33.8801 -33.8801 -33.8763
   -33.8644 -33.8610 -33.8610 -33.8606 -33.8606 -33.8590 -33.8590 -33.8578
   -33.8530 -33.8530 -33.8456 -33.8423 -33.8420 -33.8390 -33.8390 -33.8344
   -33.8339 -33.8339 -33.8260 -33.8260 -33.8249 -33.8249 -33.8189 -33.8151
   -33.8151 -33.8125 -33.8090 -33.8068 -33.8068 -33.7937 -33.7937 -33.7830
   -33.7815 -33.7793 -33.7758 -33.7748 -33.7748 -33.7705 -33.7637 -33.7637
   -33.7631 -33.7631 -33.7619 -33.7619 -33.7497 -33.7496 -33.7495 -33.7474
   -33.7223 -33.7223 -33.7196 -33.7196 -33.7165 -33.7142 -33.7142 -33.7125
   -33.7123 -33.7076 -33.7055 -33.7055 -33.7013 -33.7007 -33.7007 -33.6986
   -33.6972 -33.6972 -33.6952 -33.6949 -33.6949 -33.6860 -33.6860 -33.6823
   -33.6594 -33.6594 -33.6526 -33.6521 -33.6521 -33.6418 -33.6418 -33.6406
   -33.6406 -33.6406 -33.6377 -33.6366 -33.6359 -33.6328 -33.6325 -33.6325
   -33.6307 -33.6307 -33.6262 -33.6208 -33.6173 -33.6173 -33.6169 -33.5983
   -33.5983 -33.5876 -33.5837 -33.5837 -33.5789 -33.5789 -33.5747 -33.5731
   -33.5728 -33.5728 -33.5706 -33.5612 -33.5612 -33.5611 -33.5596 -33.5596
   -33.5558 -33.5551 -33.5551 -33.5532 -33.5532 -33.5508 -33.5503 -33.5458
   -33.5458 -33.5433 -33.5426 -33.5411 -33.5411 -33.5408 -33.5408 -33.5376
   -33.5376 -33.5360 -33.5280 -33.5276 -33.5276 -33.5231 -33.5231 -33.5216
   -33.5200 -33.5200 -33.5156 -33.5156 -33.5154 -33.5153 -33.5145 -33.5125
    10.0001  10.5938  10.7581  10.7581  11.2488  11.4166  11.4166  11.9918
    12.9804  13.1158  13.1159  13.3226  13.5010  13.5010  13.5113  13.5113
    13.5552  13.8778  13.9730  13.9730  14.1007  14.1432  14.1432  14.2337
    14.2601  14.2601  14.3151  14.3151  14.3364  14.3948  14.3948  14.4062
    14.5243  14.5243  14.5669  14.6002  14.6002  14.6568  14.7604  14.7604
    14.7665  14.8077  14.8077  14.8236  14.9653  14.9653  15.0431  15.0431
    15.2081  15.2081  15.2191  15.3156  15.3305  15.3306  15.3757  15.4120
    15.4747  15.4748  15.4949  15.4949  15.5903  15.5903  15.6200  15.6452
    15.6452  15.6585  15.6937  15.6937  15.7573  15.8268  15.9532  15.9532
    16.0370  16.0370  16.0797  16.0889  16.0890  16.1044  16.1044  16.1055
    16.1242  16.2270  16.2270  16.2280  16.2280  16.2430  16.2452  16.2452
    16.2713  16.2713  16.3131  16.3442  16.3578  16.4042  16.4118  16.4118
    16.4229  16.4229  16.4251  16.4513  16.5355  16.5355  16.5928  16.5928
    16.5938  16.5990  16.5990  16.6455  16.6455  16.7410  16.7475  16.7475
    16.7507  16.7569  16.7569  16.7876  16.7876  16.8186  16.8387  16.8387
    16.8439  16.8450  16.8548  16.8549  16.8630  16.8861  16.9032  16.9117
    16.9117  16.9725  16.9867  16.9880  16.9880  16.9924  16.9925  16.9926
    17.0526  17.0526  17.1215  17.1215  17.1574  17.1574  17.1919  17.2139
    17.2572  17.2572  17.2690  17.2821  17.2821  17.3070  17.3595  17.3595
    17.3990  17.4133  17.4133  17.4455  17.4455  17.5064  17.8504  17.8587
    17.8587  17.8823  17.8823  17.9217  17.9217  17.9708  17.9708  18.1379
    18.1515  18.1515  18.2751  18.2751  18.3485  18.3723  18.3760  18.3850
    18.5257  18.5596  18.5596  18.6327  18.6327  18.7204  18.7345  18.7345
    18.7420  18.7420  18.8047  18.8110  18.8110  18.8310  18.8310  18.8341
    18.8473  18.9194  18.9913  19.0594  19.0594  19.0628  19.0773  19.0773
    19.0892  19.0910  19.0910  19.1153  19.1586  19.1731  19.1731  19.1890
    19.1982  19.1982  19.2074  19.2074  19.2437  19.2437  19.2670  19.2670
    19.2962  19.2962  19.3090  19.3156  19.3257  19.3572  19.3572  19.3695
    19.3695  19.4198  19.4350  19.4410  19.4410  19.4633  19.4633  19.4762
    19.4844  19.4844  19.4872  19.4974  19.4974  19.5194  19.5646  19.5914
    19.5914  19.6017  19.6017  19.6362  19.6362  19.6393  19.6539  19.6539
    19.6583  19.6586  19.6586  19.6801  19.6801  19.6810  19.6839  19.6898
    19.6898  19.6901  19.6901  19.7020  19.7097  19.7392  19.7460  19.7460
    19.7828  19.7828  19.7846  19.7846  19.7901  19.8260  19.8330  19.8732
    19.8732  19.9055  19.9055  19.9719  19.9719  20.0007  20.0251  20.0251
    20.0484  20.0499  20.0499  20.1456  20.1741  20.1741  20.1864  20.5840
    20.5840  20.6434  20.7020  20.7021  20.7515  20.7549  20.8594  20.8594
    21.0034  21.0034  21.0296  21.0976  21.0976  21.1162  21.1162  21.1652
    21.2190  21.6738

     the Fermi energy is    17.4930 ev

!    total energy              =  -13654.32354913 Ry
     estimated scf accuracy    <       0.00000064 Ry
     smearing contrib. (-TS)   =       0.06117122 Ry
     internal energy E=F+TS    =  -13654.38472035 Ry

     The total energy is F=E-TS. E is the sum of the following terms:
     one-electron contribution =   -6418.11589992 Ry
     hartree contribution      =    3703.69375360 Ry
     xc contribution           =   -1519.06281380 Ry
     ewald contribution        =   -9420.89976023 Ry

     total magnetization       =   129.92 Bohr mag/cell
     absolute magnetization    =   137.94 Bohr mag/cell

     convergence has been achieved in 175 iterations

     Writing all to output data dir ./outdir/fe54_3ni_disp.save/ :
     XML data file, charge density, pseudopotentials, collected wavefunctions

     init_run     :    115.76s CPU    118.84s WALL (       1 calls)
     electrons    :  61510.11s CPU  62688.76s WALL (       1 calls)

     Called by init_run:
     wfcinit      :    111.41s CPU    114.13s WALL (       1 calls)
     potinit      :      0.94s CPU      1.01s WALL (       1 calls)
     hinit0       :      1.25s CPU      1.28s WALL (       1 calls)

     Called by electrons:
     c_bands      :  54812.12s CPU  55794.08s WALL (     175 calls)
     sum_band     :   6249.66s CPU   6404.98s WALL (     175 calls)
     v_of_rho     :     84.45s CPU     85.63s WALL (     176 calls)
     newd         :    328.36s CPU    367.65s WALL (     176 calls)
     mix_rho      :     31.46s CPU     32.34s WALL (     175 calls)

     Called by c_bands:
     init_us_2    :    285.26s CPU    285.86s WALL (    7020 calls)
     cegterg      :  53432.28s CPU  54411.21s WALL (    3500 calls)

     Called by *egterg:
     cdiaghg      :   5343.14s CPU   5480.59s WALL (   10030 calls)
     h_psi        :  22293.11s CPU  22796.06s WALL (   10050 calls)
     s_psi        :   5535.36s CPU   5546.12s WALL (   10050 calls)
     g_psi        :    123.27s CPU    123.50s WALL (    6530 calls)

     Called by h_psi:
     h_psi:calbec :   5864.95s CPU   5895.46s WALL (   10050 calls)
     vloc_psi     :  10791.13s CPU  11138.88s WALL (   10050 calls)
                                        0.00s GPU  (   10050 calls)
     add_vuspsi   :   5568.31s CPU   5578.32s WALL (   10050 calls)

     General routines
     calbec       :   8615.08s CPU   8659.15s WALL (   13550 calls)
     fft          :     33.72s CPU     35.41s WALL (    4394 calls)
     ffts         :      9.65s CPU     10.33s WALL (    4250 calls)
     fftw         :  11587.36s CPU  11982.75s WALL ( 9465262 calls)
     interpolate  :      4.70s CPU      4.89s WALL (     352 calls)

     Parallel routines

     PWSCF        :     17h 7m CPU     17h26m WALL


   This run was terminated on:  23:29: 6  20Jun2026            

=------------------------------------------------------------------------------=
   JOB DONE.
=------------------------------------------------------------------------------=
