
     Program PWSCF v.7.5 starts on 19Jun2026 at 19:33:39 

     This program is part of the open-source Quantum ESPRESSO suite
     for quantum simulation of materials; please cite
         "P. Giannozzi et al., J. Phys.:Condens. Matter 21 395502 (2009);
         "P. Giannozzi et al., J. Phys.:Condens. Matter 29 465901 (2017);
         "P. Giannozzi et al., J. Chem. Phys. 152 154105 (2020);
          URL http://www.quantum-espresso.org", 
     in publications or presentations arising from this work. More details at
     http://www.quantum-espresso.org/quote

     Parallel version (MPI & OpenMP), running on       4 processor cores
     Number of MPI processes:                 4
     Threads/MPI process:                     1

     MPI processes distributed on     1 nodes
     26667 MiB available memory on the printing compute node when the environment starts

     Reading input from fe54_3ni_clustered.scf.in

     Current dimensions of program PWSCF are:
     Max number of different atomic species (ntypx) = 10
     Max number of k-points (npk) =  40000
     Max angular momentum in pseudopotentials (lmaxx) =  4
     file Fe.pbe-spn-rrkjus_psl.1.0.0.UPF: wavefunction(s)  3P 3D renormalized
     file Ni.pbe-spn-rrkjus_psl.1.0.0.UPF: wavefunction(s)  3P 3D renormalized

     R & G space division:  proc/nbgrp/npool/nimage =       4
     Subspace diagonalization in iterative solution of the eigenvalue problem:
     one sub-group per band group will be used
     ELPA distributed-memory algorithm (size of sub-group:  2*  2 procs)


     Parallelization info
     --------------------
     sticks:   dense  smooth     PW     G-vecs:    dense   smooth      PW
     Min        1893     944    251               123669    43650    6027
     Max        1894     945    252               123672    43653    6030
     Sum        7573    3777   1005               494679   174605   24111

     Using Slab Decomposition



     bravais-lattice index     =            1
     lattice parameter (alat)  =      16.2480  a.u.
     unit-cell volume          =    4289.4314 (a.u.)^3
     number of atoms/cell      =           54
     number of atomic types    =            2
     number of electrons       =       870.00
     number of Kohn-Sham states=          522
     kinetic-energy cutoff     =      45.0000  Ry
     charge density cutoff     =     360.0000  Ry
     scf convergence threshold =      1.0E-06
     mixing beta               =       0.2000
     number of iterations used =            8  local-TF  mixing
     Exchange-correlation= PBE
                           (   1   4   3   4   0   0   0)

     celldm(1)=  16.248000  celldm(2)=   0.000000  celldm(3)=   0.000000
     celldm(4)=   0.000000  celldm(5)=   0.000000  celldm(6)=   0.000000

     crystal axes: (cart. coord. in units of alat)
               a(1) = (   1.000000   0.000000   0.000000 )  
               a(2) = (   0.000000   1.000000   0.000000 )  
               a(3) = (   0.000000   0.000000   1.000000 )  

     reciprocal axes: (cart. coord. in units 2 pi/alat)
               b(1) = (  1.000000  0.000000  0.000000 )  
               b(2) = (  0.000000  1.000000  0.000000 )  
               b(3) = (  0.000000  0.000000  1.000000 )  


     PseudoPot. # 1 for Fe read from file:
     ../pseudo/Fe.pbe-spn-rrkjus_psl.1.0.0.UPF
     MD5 check sum: 72ea77fed8e64ab3a2ccf2804dfc1862
     Pseudo is Ultrasoft + core correction, Zval = 16.0
     Generated using &quot;atomic&quot; code by A. Dal Corso  v.6.3
     Using radial grid of 1191 points,  6 beta functions with: 
                l(1) =   0
                l(2) =   0
                l(3) =   1
                l(4) =   1
                l(5) =   2
                l(6) =   2
     Q(r) pseudized with 0 coefficients 


     PseudoPot. # 2 for Ni read from file:
     ../pseudo/Ni.pbe-spn-rrkjus_psl.1.0.0.UPF
     MD5 check sum: 8b3fc9aac6dafe35f580d41bb18c3945
     Pseudo is Ultrasoft + core correction, Zval = 18.0
     Generated using &quot;atomic&quot; code by A. Dal Corso  v.6.3
     Using radial grid of 1195 points,  6 beta functions with: 
                l(1) =   0
                l(2) =   0
                l(3) =   1
                l(4) =   1
                l(5) =   2
                l(6) =   2
     Q(r) pseudized with 0 coefficients 


     atomic species   valence    mass     pseudopotential
     Fe               16.00    55.84500     Fe( 1.00)
     Ni               18.00    58.69300     Ni( 1.00)

     Starting magnetic structure 
     atomic species   magnetization
     Fe              0.500
     Ni              0.200

      4 Sym. Ops. (no inversion) found



   Cartesian axes

     site n.     atom                  positions (alat units)
         1        Ni     tau(   1) = (   0.0000000   0.0000000   0.0000000  )
         2        Ni     tau(   2) = (   0.1666670   0.1666670   0.1666670  )
         3        Fe     tau(   3) = (   0.0000000   0.0000000   0.3333330  )
         4        Fe     tau(   4) = (   0.1666670   0.1666670   0.5000000  )
         5        Fe     tau(   5) = (   0.0000000   0.0000000   0.6666670  )
         6        Ni     tau(   6) = (   0.1666670   0.1666670   0.8333330  )
         7        Fe     tau(   7) = (   0.0000000   0.3333330   0.0000000  )
         8        Fe     tau(   8) = (   0.1666670   0.5000000   0.1666670  )
         9        Fe     tau(   9) = (   0.0000000   0.3333330   0.3333330  )
        10        Fe     tau(  10) = (   0.1666670   0.5000000   0.5000000  )
        11        Fe     tau(  11) = (   0.0000000   0.3333330   0.6666670  )
        12        Fe     tau(  12) = (   0.1666670   0.5000000   0.8333330  )
        13        Fe     tau(  13) = (   0.0000000   0.6666670   0.0000000  )
        14        Fe     tau(  14) = (   0.1666670   0.8333330   0.1666670  )
        15        Fe     tau(  15) = (   0.0000000   0.6666670   0.3333330  )
        16        Fe     tau(  16) = (   0.1666670   0.8333330   0.5000000  )
        17        Fe     tau(  17) = (   0.0000000   0.6666670   0.6666670  )
        18        Fe     tau(  18) = (   0.1666670   0.8333330   0.8333330  )
        19        Fe     tau(  19) = (   0.3333330   0.0000000   0.0000000  )
        20        Fe     tau(  20) = (   0.5000000   0.1666670   0.1666670  )
        21        Fe     tau(  21) = (   0.3333330   0.0000000   0.3333330  )
        22        Fe     tau(  22) = (   0.5000000   0.1666670   0.5000000  )
        23        Fe     tau(  23) = (   0.3333330   0.0000000   0.6666670  )
        24        Fe     tau(  24) = (   0.5000000   0.1666670   0.8333330  )
        25        Fe     tau(  25) = (   0.3333330   0.3333330   0.0000000  )
        26        Fe     tau(  26) = (   0.5000000   0.5000000   0.1666670  )
        27        Fe     tau(  27) = (   0.3333330   0.3333330   0.3333330  )
        28        Fe     tau(  28) = (   0.5000000   0.5000000   0.5000000  )
        29        Fe     tau(  29) = (   0.3333330   0.3333330   0.6666670  )
        30        Fe     tau(  30) = (   0.5000000   0.5000000   0.8333330  )
        31        Fe     tau(  31) = (   0.3333330   0.6666670   0.0000000  )
        32        Fe     tau(  32) = (   0.5000000   0.8333330   0.1666670  )
        33        Fe     tau(  33) = (   0.3333330   0.6666670   0.3333330  )
        34        Fe     tau(  34) = (   0.5000000   0.8333330   0.5000000  )
        35        Fe     tau(  35) = (   0.3333330   0.6666670   0.6666670  )
        36        Fe     tau(  36) = (   0.5000000   0.8333330   0.8333330  )
        37        Fe     tau(  37) = (   0.6666670   0.0000000   0.0000000  )
        38        Fe     tau(  38) = (   0.8333330   0.1666670   0.1666670  )
        39        Fe     tau(  39) = (   0.6666670   0.0000000   0.3333330  )
        40        Fe     tau(  40) = (   0.8333330   0.1666670   0.5000000  )
        41        Fe     tau(  41) = (   0.6666670   0.0000000   0.6666670  )
        42        Fe     tau(  42) = (   0.8333330   0.1666670   0.8333330  )
        43        Fe     tau(  43) = (   0.6666670   0.3333330   0.0000000  )
        44        Fe     tau(  44) = (   0.8333330   0.5000000   0.1666670  )
        45        Fe     tau(  45) = (   0.6666670   0.3333330   0.3333330  )
        46        Fe     tau(  46) = (   0.8333330   0.5000000   0.5000000  )
        47        Fe     tau(  47) = (   0.6666670   0.3333330   0.6666670  )
        48        Fe     tau(  48) = (   0.8333330   0.5000000   0.8333330  )
        49        Fe     tau(  49) = (   0.6666670   0.6666670   0.0000000  )
        50        Fe     tau(  50) = (   0.8333330   0.8333330   0.1666670  )
        51        Fe     tau(  51) = (   0.6666670   0.6666670   0.3333330  )
        52        Fe     tau(  52) = (   0.8333330   0.8333330   0.5000000  )
        53        Fe     tau(  53) = (   0.6666670   0.6666670   0.6666670  )
        54        Fe     tau(  54) = (   0.8333330   0.8333330   0.8333330  )

     number of k points=     8  Marzari-Vanderbilt smearing, width (Ry)=  0.0200
                       cart. coord. in units 2pi/alat
        k(    1) = (   0.0000000   0.0000000   0.0000000), wk =   0.0370370
        k(    2) = (   0.0000000   0.0000000   0.3333333), wk =   0.0740741
        k(    3) = (   0.0000000   0.3333333   0.3333333), wk =   0.2962963
        k(    4) = (   0.3333333   0.3333333   0.3333333), wk =   0.1481481
        k(    5) = (   0.3333333   0.0000000   0.0000000), wk =   0.1481481
        k(    6) = (   0.3333333  -0.3333333   0.0000000), wk =   0.0740741
        k(    7) = (  -0.3333333  -0.3333333   0.0000000), wk =   0.0740741
        k(    8) = (   0.3333333  -0.3333333   0.3333333), wk =   0.1481481

     Dense  grid:   494679 G-vectors     FFT dimensions: ( 100, 100, 100)

     Smooth grid:   174605 G-vectors     FFT dimensions: (  72,  72,  72)

     Estimated max dynamical RAM per process >       1.36 GB

     Estimated total dynamical RAM >       5.44 GB

     Check: negative core charge=   -0.000004
     Generating pointlists ...
     new r_m :   0.1191 (alat units)  1.9348 (a.u.) for type    1
     new r_m :   0.1191 (alat units)  1.9348 (a.u.) for type    2

     Initial potential from superposition of free atoms

     starting charge     869.9769, renormalised to     870.0000
     Starting wfcs are  540 randomized atomic wfcs

     total cpu time spent up to now is       96.0 secs

     per-process dynamical memory:   946.9 Mb

     Self-consistent Calculation

     iteration #  1     ecut=    45.00 Ry     beta= 0.20
     Davidson diagonalization with overlap
     ethr =  1.00E-02,  avg # of iterations =  3.6

     total cpu time spent up to now is      451.9 secs

     total energy              =  -13638.69692744 Ry
     estimated scf accuracy    <      29.95237422 Ry

     total magnetization       =   173.88 Bohr mag/cell
     absolute magnetization    =   179.12 Bohr mag/cell

     iteration #  2     ecut=    45.00 Ry     beta= 0.20
     Davidson diagonalization with overlap
     ethr =  3.44E-03,  avg # of iterations =  1.4

     negative rho (up, down):  0.000E+00 3.962E-03

     total cpu time spent up to now is      717.2 secs

     total energy              =  -13649.52502000 Ry
     estimated scf accuracy    <      20.25447013 Ry

     total magnetization       =   170.76 Bohr mag/cell
     absolute magnetization    =   177.67 Bohr mag/cell

     iteration #  3     ecut=    45.00 Ry     beta= 0.20
     Davidson diagonalization with overlap
     ethr =  2.33E-03,  avg # of iterations =  2.9

     negative rho (up, down):  0.000E+00 7.484E-03

     total cpu time spent up to now is     1055.1 secs

     total energy              =  -13647.15580713 Ry
     estimated scf accuracy    <     304.09906831 Ry

     total magnetization       =   156.36 Bohr mag/cell
     absolute magnetization    =   205.73 Bohr mag/cell

     iteration #  4     ecut=    45.00 Ry     beta= 0.20
     Davidson diagonalization with overlap
     ethr =  2.33E-03,  avg # of iterations =  2.1

     negative rho (up, down):  1.303E-04 2.092E-02

     total cpu time spent up to now is     1366.1 secs

     total energy              =  -13651.47774723 Ry
     estimated scf accuracy    <      29.40950468 Ry

     total magnetization       =   153.70 Bohr mag/cell
     absolute magnetization    =   172.40 Bohr mag/cell

     iteration #  5     ecut=    45.00 Ry     beta= 0.20
     Davidson diagonalization with overlap
     ethr =  2.33E-03,  avg # of iterations =  1.7

     negative rho (up, down):  3.131E-06 2.122E-02

     total cpu time spent up to now is     1646.8 secs

     total energy              =  -13652.92637120 Ry
     estimated scf accuracy    <       3.00609587 Ry

     total magnetization       =   139.06 Bohr mag/cell
     absolute magnetization    =   152.37 Bohr mag/cell

     iteration #  6     ecut=    45.00 Ry     beta= 0.20
     Davidson diagonalization with overlap
     ethr =  3.46E-04,  avg # of iterations =  3.1

     negative rho (up, down):  0.000E+00 2.234E-02

     total cpu time spent up to now is     1978.8 secs

     total energy              =  -13652.15145930 Ry
     estimated scf accuracy    <      61.13210744 Ry

     total magnetization       =   137.80 Bohr mag/cell
     absolute magnetization    =   162.89 Bohr mag/cell

     iteration #  7     ecut=    45.00 Ry     beta= 0.20
     Davidson diagonalization with overlap
     ethr =  3.46E-04,  avg # of iterations =  2.6

     negative rho (up, down):  0.000E+00 2.002E-02

     total cpu time spent up to now is     2312.4 secs

     total energy              =  -13653.07275812 Ry
     estimated scf accuracy    <       3.07951472 Ry

     total magnetization       =   137.19 Bohr mag/cell
     absolute magnetization    =   149.59 Bohr mag/cell

     iteration #  8     ecut=    45.00 Ry     beta= 0.20
     Davidson diagonalization with overlap
     ethr =  3.46E-04,  avg # of iterations =  2.6

     negative rho (up, down):  0.000E+00 1.777E-02

     total cpu time spent up to now is     2606.1 secs

     total energy              =  -13653.39538463 Ry
     estimated scf accuracy    <       0.43416863 Ry

     total magnetization       =   136.76 Bohr mag/cell
     absolute magnetization    =   146.82 Bohr mag/cell

     iteration #  9     ecut=    45.00 Ry     beta= 0.20
     Davidson diagonalization with overlap
     ethr =  4.99E-05,  avg # of iterations =  2.4

     negative rho (up, down):  0.000E+00 1.687E-02

     total cpu time spent up to now is     2917.5 secs

     total energy              =  -13653.62618395 Ry
     estimated scf accuracy    <       2.21641157 Ry

     total magnetization       =   136.23 Bohr mag/cell
     absolute magnetization    =   147.77 Bohr mag/cell

     iteration # 10     ecut=    45.00 Ry     beta= 0.20
     Davidson diagonalization with overlap
     ethr =  4.99E-05,  avg # of iterations =  2.5

     negative rho (up, down):  0.000E+00 1.490E-02

     total cpu time spent up to now is     3218.6 secs

     total energy              =  -13653.82542437 Ry
     estimated scf accuracy    <       0.84443389 Ry

     total magnetization       =   135.97 Bohr mag/cell
     absolute magnetization    =   146.39 Bohr mag/cell

     iteration # 11     ecut=    45.00 Ry     beta= 0.20
     Davidson diagonalization with overlap
     ethr =  4.99E-05,  avg # of iterations =  2.0

     negative rho (up, down):  0.000E+00 1.316E-02

     total cpu time spent up to now is     3513.7 secs

     total energy              =  -13653.97500653 Ry
     estimated scf accuracy    <       0.18008403 Ry

     total magnetization       =   134.37 Bohr mag/cell
     absolute magnetization    =   144.00 Bohr mag/cell

     iteration # 12     ecut=    45.00 Ry     beta= 0.20
     Davidson diagonalization with overlap
     ethr =  2.07E-05,  avg # of iterations =  2.6

     negative rho (up, down):  0.000E+00 1.012E-02

     total cpu time spent up to now is     3798.7 secs

     total energy              =  -13654.08636650 Ry
     estimated scf accuracy    <       0.13277205 Ry

     total magnetization       =   132.77 Bohr mag/cell
     absolute magnetization    =   142.37 Bohr mag/cell

     iteration # 13     ecut=    45.00 Ry     beta= 0.20
     Davidson diagonalization with overlap
     ethr =  1.53E-05,  avg # of iterations =  2.0

     negative rho (up, down):  0.000E+00 8.127E-03

     total cpu time spent up to now is     4089.9 secs

     total energy              =  -13654.16288687 Ry
     estimated scf accuracy    <       0.04285832 Ry

     total magnetization       =   132.08 Bohr mag/cell
     absolute magnetization    =   141.22 Bohr mag/cell

     iteration # 14     ecut=    45.00 Ry     beta= 0.20
     Davidson diagonalization with overlap
     c_bands:  2 eigenvalues not converged
     c_bands:  3 eigenvalues not converged
     ethr =  4.93E-06,  avg # of iterations = 10.1

     negative rho (up, down):  0.000E+00 7.801E-03

     total cpu time spent up to now is     4441.3 secs

     total energy              =  -13654.22095880 Ry
     estimated scf accuracy    <       0.08937205 Ry

     total magnetization       =   131.83 Bohr mag/cell
     absolute magnetization    =   140.66 Bohr mag/cell

     iteration # 15     ecut=    45.00 Ry     beta= 0.20
     Davidson diagonalization with overlap
     c_bands:  3 eigenvalues not converged
     ethr =  4.93E-06,  avg # of iterations =  2.8

     negative rho (up, down):  0.000E+00 8.115E-03

     total cpu time spent up to now is     4721.3 secs

     total energy              =  -13654.25899782 Ry
     estimated scf accuracy    <       0.06882793 Ry

     total magnetization       =   131.97 Bohr mag/cell
     absolute magnetization    =   140.69 Bohr mag/cell

     iteration # 16     ecut=    45.00 Ry     beta= 0.20
     Davidson diagonalization with overlap
     ethr =  4.93E-06,  avg # of iterations =  3.0

     negative rho (up, down):  0.000E+00 7.006E-03

     total cpu time spent up to now is     5015.0 secs

     total energy              =  -13654.28469328 Ry
     estimated scf accuracy    <       0.15522455 Ry

     total magnetization       =   131.24 Bohr mag/cell
     absolute magnetization    =   140.22 Bohr mag/cell

     iteration # 17     ecut=    45.00 Ry     beta= 0.20
     Davidson diagonalization with overlap
     ethr =  4.93E-06,  avg # of iterations =  2.0

     negative rho (up, down):  0.000E+00 7.031E-03

     total cpu time spent up to now is     5303.5 secs

     total energy              =  -13654.29541320 Ry
     estimated scf accuracy    <       0.06485739 Ry

     total magnetization       =   132.13 Bohr mag/cell
     absolute magnetization    =   140.68 Bohr mag/cell

     iteration # 18     ecut=    45.00 Ry     beta= 0.20
     Davidson diagonalization with overlap
     ethr =  4.93E-06,  avg # of iterations =  1.1

     negative rho (up, down):  0.000E+00 7.756E-03

     total cpu time spent up to now is     5555.2 secs

     total energy              =  -13654.29586154 Ry
     estimated scf accuracy    <       0.07381573 Ry

     total magnetization       =   132.36 Bohr mag/cell
     absolute magnetization    =   140.90 Bohr mag/cell

     iteration # 19     ecut=    45.00 Ry     beta= 0.20
     Davidson diagonalization with overlap
     ethr =  4.93E-06,  avg # of iterations =  1.6

     negative rho (up, down):  0.000E+00 6.314E-03

     total cpu time spent up to now is     5827.5 secs

     total energy              =  -13654.29944742 Ry
     estimated scf accuracy    <       0.07473743 Ry

     total magnetization       =   133.16 Bohr mag/cell
     absolute magnetization    =   141.70 Bohr mag/cell

     iteration # 20     ecut=    45.00 Ry     beta= 0.20
     Davidson diagonalization with overlap
     ethr =  4.93E-06,  avg # of iterations =  2.0

     negative rho (up, down):  0.000E+00 6.112E-03

     total cpu time spent up to now is     6129.6 secs

     total energy              =  -13654.30457531 Ry
     estimated scf accuracy    <       0.21984435 Ry

     total magnetization       =   131.18 Bohr mag/cell
     absolute magnetization    =   140.02 Bohr mag/cell

     iteration # 21     ecut=    45.00 Ry     beta= 0.20
     Davidson diagonalization with overlap
     ethr =  4.93E-06,  avg # of iterations =  2.0

     negative rho (up, down):  0.000E+00 6.243E-03

     total cpu time spent up to now is     6423.6 secs

     total energy              =  -13654.29996995 Ry
     estimated scf accuracy    <       0.23813338 Ry

     total magnetization       =   131.53 Bohr mag/cell
     absolute magnetization    =   140.29 Bohr mag/cell

     iteration # 22     ecut=    45.00 Ry     beta= 0.20
     Davidson diagonalization with overlap
     ethr =  4.93E-06,  avg # of iterations =  2.0

     negative rho (up, down):  0.000E+00 6.359E-03

     total cpu time spent up to now is     6718.0 secs

     total energy              =  -13654.29186217 Ry
     estimated scf accuracy    <       0.35178081 Ry

     total magnetization       =   131.53 Bohr mag/cell
     absolute magnetization    =   140.39 Bohr mag/cell

     iteration # 23     ecut=    45.00 Ry     beta= 0.20
     Davidson diagonalization with overlap
     ethr =  4.93E-06,  avg # of iterations =  1.0

     negative rho (up, down):  0.000E+00 6.926E-03

     total cpu time spent up to now is     6967.1 secs

     total energy              =  -13654.27378484 Ry
     estimated scf accuracy    <       0.32029094 Ry

     total magnetization       =   131.51 Bohr mag/cell
     absolute magnetization    =   140.36 Bohr mag/cell

     iteration # 24     ecut=    45.00 Ry     beta= 0.20
     Davidson diagonalization with overlap
     ethr =  4.93E-06,  avg # of iterations =  2.0

     negative rho (up, down):  0.000E+00 7.633E-03

     total cpu time spent up to now is     7260.7 secs

     total energy              =  -13654.27508714 Ry
     estimated scf accuracy    <       0.10231528 Ry

     total magnetization       =   132.03 Bohr mag/cell
     absolute magnetization    =   140.65 Bohr mag/cell

     iteration # 25     ecut=    45.00 Ry     beta= 0.20
     Davidson diagonalization with overlap
     ethr =  4.93E-06,  avg # of iterations =  1.2

     negative rho (up, down):  0.000E+00 7.681E-03

     total cpu time spent up to now is     7518.9 secs

     total energy              =  -13654.27554517 Ry
     estimated scf accuracy    <       0.09945596 Ry

     total magnetization       =   132.21 Bohr mag/cell
     absolute magnetization    =   140.82 Bohr mag/cell

     iteration # 26     ecut=    45.00 Ry     beta= 0.20
     Davidson diagonalization with overlap
     ethr =  4.93E-06,  avg # of iterations =  1.7

     negative rho (up, down):  0.000E+00 7.075E-03

     total cpu time spent up to now is     7795.0 secs

     total energy              =  -13654.28183818 Ry
     estimated scf accuracy    <       0.03715111 Ry

     total magnetization       =   131.59 Bohr mag/cell
     absolute magnetization    =   140.09 Bohr mag/cell

     iteration # 27     ecut=    45.00 Ry     beta= 0.20
     Davidson diagonalization with overlap
     ethr =  4.27E-06,  avg # of iterations =  1.4

     negative rho (up, down):  0.000E+00 6.557E-03

     total cpu time spent up to now is     8061.4 secs

     total energy              =  -13654.28955936 Ry
     estimated scf accuracy    <       0.00829382 Ry

     total magnetization       =   130.76 Bohr mag/cell
     absolute magnetization    =   139.18 Bohr mag/cell

     iteration # 28     ecut=    45.00 Ry     beta= 0.20
     Davidson diagonalization with overlap
     ethr =  9.53E-07,  avg # of iterations =  2.0

     negative rho (up, down):  0.000E+00 6.440E-03

     total cpu time spent up to now is     8364.4 secs

     total energy              =  -13654.29835115 Ry
     estimated scf accuracy    <       0.00203737 Ry

     total magnetization       =   130.11 Bohr mag/cell
     absolute magnetization    =   138.44 Bohr mag/cell

     iteration # 29     ecut=    45.00 Ry     beta= 0.20
     Davidson diagonalization with overlap
     ethr =  2.34E-07,  avg # of iterations =  2.2

     negative rho (up, down):  0.000E+00 6.472E-03

     total cpu time spent up to now is     8657.5 secs

     total energy              =  -13654.30374368 Ry
     estimated scf accuracy    <       0.00535620 Ry

     total magnetization       =   130.11 Bohr mag/cell
     absolute magnetization    =   138.39 Bohr mag/cell

     iteration # 30     ecut=    45.00 Ry     beta= 0.20
     Davidson diagonalization with overlap
     ethr =  2.34E-07,  avg # of iterations =  1.1

     negative rho (up, down):  0.000E+00 6.571E-03

     total cpu time spent up to now is     8909.0 secs

     total energy              =  -13654.30685316 Ry
     estimated scf accuracy    <       0.00396919 Ry

     total magnetization       =   130.13 Bohr mag/cell
     absolute magnetization    =   138.41 Bohr mag/cell

     iteration # 31     ecut=    45.00 Ry     beta= 0.20
     Davidson diagonalization with overlap
     ethr =  2.34E-07,  avg # of iterations =  2.0

     negative rho (up, down):  0.000E+00 6.272E-03

     total cpu time spent up to now is     9199.2 secs

     total energy              =  -13654.30832957 Ry
     estimated scf accuracy    <       0.00686835 Ry

     total magnetization       =   130.19 Bohr mag/cell
     absolute magnetization    =   138.47 Bohr mag/cell

     iteration # 32     ecut=    45.00 Ry     beta= 0.20
     Davidson diagonalization with overlap
     ethr =  2.34E-07,  avg # of iterations =  2.0

     negative rho (up, down):  0.000E+00 6.446E-03

     total cpu time spent up to now is     9507.5 secs

     total energy              =  -13654.30987429 Ry
     estimated scf accuracy    <       0.01085124 Ry

     total magnetization       =   130.17 Bohr mag/cell
     absolute magnetization    =   138.42 Bohr mag/cell

     iteration # 33     ecut=    45.00 Ry     beta= 0.20
     Davidson diagonalization with overlap
     ethr =  2.34E-07,  avg # of iterations =  1.4

     negative rho (up, down):  0.000E+00 5.798E-03

     total cpu time spent up to now is     9773.8 secs

     total energy              =  -13654.31122465 Ry
     estimated scf accuracy    <       0.01664548 Ry

     total magnetization       =   130.36 Bohr mag/cell
     absolute magnetization    =   138.64 Bohr mag/cell

     iteration # 34     ecut=    45.00 Ry     beta= 0.20
     Davidson diagonalization with overlap
     ethr =  2.34E-07,  avg # of iterations =  2.2

     negative rho (up, down):  0.000E+00 5.824E-03

     total cpu time spent up to now is    10081.1 secs

     total energy              =  -13654.31167100 Ry
     estimated scf accuracy    <       0.02814062 Ry

     total magnetization       =   129.95 Bohr mag/cell
     absolute magnetization    =   138.11 Bohr mag/cell

     iteration # 35     ecut=    45.00 Ry     beta= 0.20
     Davidson diagonalization with overlap
     ethr =  2.34E-07,  avg # of iterations =  1.4

     negative rho (up, down):  0.000E+00 5.776E-03

     total cpu time spent up to now is    10344.3 secs

     total energy              =  -13654.31060841 Ry
     estimated scf accuracy    <       0.03570622 Ry

     total magnetization       =   129.93 Bohr mag/cell
     absolute magnetization    =   138.08 Bohr mag/cell

     iteration # 36     ecut=    45.00 Ry     beta= 0.20
     Davidson diagonalization with overlap
     ethr =  2.34E-07,  avg # of iterations =  2.0

     negative rho (up, down):  0.000E+00 5.639E-03

     total cpu time spent up to now is    10635.3 secs

     total energy              =  -13654.30951081 Ry
     estimated scf accuracy    <       0.02443469 Ry

     total magnetization       =   129.93 Bohr mag/cell
     absolute magnetization    =   138.06 Bohr mag/cell

     iteration # 37     ecut=    45.00 Ry     beta= 0.20
     Davidson diagonalization with overlap
     ethr =  2.34E-07,  avg # of iterations =  2.0

     negative rho (up, down):  0.000E+00 5.723E-03

     total cpu time spent up to now is    10932.1 secs

     total energy              =  -13654.30925154 Ry
     estimated scf accuracy    <       0.01425933 Ry

     total magnetization       =   129.58 Bohr mag/cell
     absolute magnetization    =   137.68 Bohr mag/cell

     iteration # 38     ecut=    45.00 Ry     beta= 0.20
     Davidson diagonalization with overlap
     ethr =  2.34E-07,  avg # of iterations =  1.2

     negative rho (up, down):  0.000E+00 5.753E-03

     total cpu time spent up to now is    11188.2 secs

     total energy              =  -13654.30874492 Ry
     estimated scf accuracy    <       0.01600746 Ry

     total magnetization       =   129.81 Bohr mag/cell
     absolute magnetization    =   137.88 Bohr mag/cell

     iteration # 39     ecut=    45.00 Ry     beta= 0.20
     Davidson diagonalization with overlap
     ethr =  2.34E-07,  avg # of iterations =  1.1

     negative rho (up, down):  0.000E+00 5.580E-03

     total cpu time spent up to now is    11439.5 secs

     total energy              =  -13654.30782623 Ry
     estimated scf accuracy    <       0.01617232 Ry

     total magnetization       =   129.96 Bohr mag/cell
     absolute magnetization    =   138.03 Bohr mag/cell

     iteration # 40     ecut=    45.00 Ry     beta= 0.20
     Davidson diagonalization with overlap
     ethr =  2.34E-07,  avg # of iterations =  2.0

     negative rho (up, down):  0.000E+00 5.547E-03

     total cpu time spent up to now is    11744.5 secs

     total energy              =  -13654.30878018 Ry
     estimated scf accuracy    <       0.00289965 Ry

     total magnetization       =   129.94 Bohr mag/cell
     absolute magnetization    =   137.95 Bohr mag/cell

     iteration # 41     ecut=    45.00 Ry     beta= 0.20
     Davidson diagonalization with overlap
     ethr =  2.34E-07,  avg # of iterations =  1.0

     negative rho (up, down):  0.000E+00 5.700E-03

     total cpu time spent up to now is    11992.9 secs

     total energy              =  -13654.30902728 Ry
     estimated scf accuracy    <       0.00261678 Ry

     total magnetization       =   129.93 Bohr mag/cell
     absolute magnetization    =   137.93 Bohr mag/cell

     iteration # 42     ecut=    45.00 Ry     beta= 0.20
     Davidson diagonalization with overlap
     ethr =  2.34E-07,  avg # of iterations =  2.0

     negative rho (up, down):  0.000E+00 5.623E-03

     total cpu time spent up to now is    12283.7 secs

     total energy              =  -13654.30997931 Ry
     estimated scf accuracy    <       0.00321583 Ry

     total magnetization       =   130.18 Bohr mag/cell
     absolute magnetization    =   138.21 Bohr mag/cell

     iteration # 43     ecut=    45.00 Ry     beta= 0.20
     Davidson diagonalization with overlap
     ethr =  2.34E-07,  avg # of iterations =  1.1

     negative rho (up, down):  0.000E+00 5.568E-03

     total cpu time spent up to now is    12540.8 secs

     total energy              =  -13654.31049250 Ry
     estimated scf accuracy    <       0.00208157 Ry

     total magnetization       =   130.02 Bohr mag/cell
     absolute magnetization    =   138.05 Bohr mag/cell

     iteration # 44     ecut=    45.00 Ry     beta= 0.20
     Davidson diagonalization with overlap
     ethr =  2.34E-07,  avg # of iterations =  1.8

     negative rho (up, down):  0.000E+00 5.770E-03

     total cpu time spent up to now is    12821.1 secs

     total energy              =  -13654.31082274 Ry
     estimated scf accuracy    <       0.00082157 Ry

     total magnetization       =   129.73 Bohr mag/cell
     absolute magnetization    =   137.73 Bohr mag/cell

     iteration # 45     ecut=    45.00 Ry     beta= 0.20
     Davidson diagonalization with overlap
     ethr =  9.44E-08,  avg # of iterations =  1.9

     negative rho (up, down):  0.000E+00 5.785E-03

     total cpu time spent up to now is    13103.6 secs

     total energy              =  -13654.31109995 Ry
     estimated scf accuracy    <       0.00013323 Ry

     total magnetization       =   129.67 Bohr mag/cell
     absolute magnetization    =   137.71 Bohr mag/cell

     iteration # 46     ecut=    45.00 Ry     beta= 0.20
     Davidson diagonalization with overlap
     ethr =  1.53E-08,  avg # of iterations =  1.6

     negative rho (up, down):  0.000E+00 5.641E-03

     total cpu time spent up to now is    13376.9 secs

     total energy              =  -13654.31129465 Ry
     estimated scf accuracy    <       0.00004570 Ry

     total magnetization       =   129.64 Bohr mag/cell
     absolute magnetization    =   137.69 Bohr mag/cell

     iteration # 47     ecut=    45.00 Ry     beta= 0.20
     Davidson diagonalization with overlap
     ethr =  5.25E-09,  avg # of iterations =  5.6

     negative rho (up, down):  0.000E+00 5.606E-03

     total cpu time spent up to now is    13767.4 secs

     total energy              =  -13654.31142545 Ry
     estimated scf accuracy    <       0.00008223 Ry

     total magnetization       =   129.48 Bohr mag/cell
     absolute magnetization    =   137.50 Bohr mag/cell

     iteration # 48     ecut=    45.00 Ry     beta= 0.20
     Davidson diagonalization with overlap
     ethr =  5.25E-09,  avg # of iterations =  2.0

     negative rho (up, down):  0.000E+00 5.610E-03

     total cpu time spent up to now is    14063.8 secs

     total energy              =  -13654.31148523 Ry
     estimated scf accuracy    <       0.00009820 Ry

     total magnetization       =   129.42 Bohr mag/cell
     absolute magnetization    =   137.43 Bohr mag/cell

     iteration # 49     ecut=    45.00 Ry     beta= 0.20
     Davidson diagonalization with overlap
     ethr =  5.25E-09,  avg # of iterations =  1.6

     negative rho (up, down):  0.000E+00 5.628E-03

     total cpu time spent up to now is    14337.1 secs

     total energy              =  -13654.31153073 Ry
     estimated scf accuracy    <       0.00004574 Ry

     total magnetization       =   129.41 Bohr mag/cell
     absolute magnetization    =   137.41 Bohr mag/cell

     iteration # 50     ecut=    45.00 Ry     beta= 0.20
     Davidson diagonalization with overlap
     ethr =  5.25E-09,  avg # of iterations =  2.0

     negative rho (up, down):  0.000E+00 5.607E-03

     total cpu time spent up to now is    14625.8 secs

     total energy              =  -13654.31157007 Ry
     estimated scf accuracy    <       0.00004331 Ry

     total magnetization       =   129.41 Bohr mag/cell
     absolute magnetization    =   137.41 Bohr mag/cell

     iteration # 51     ecut=    45.00 Ry     beta= 0.20
     Davidson diagonalization with overlap
     ethr =  4.98E-09,  avg # of iterations =  2.0

     negative rho (up, down):  0.000E+00 5.574E-03

     total cpu time spent up to now is    14925.2 secs

     total energy              =  -13654.31161088 Ry
     estimated scf accuracy    <       0.00010071 Ry

     total magnetization       =   129.42 Bohr mag/cell
     absolute magnetization    =   137.42 Bohr mag/cell

     iteration # 52     ecut=    45.00 Ry     beta= 0.20
     Davidson diagonalization with overlap
     ethr =  4.98E-09,  avg # of iterations =  2.0

     negative rho (up, down):  0.000E+00 5.571E-03

     total cpu time spent up to now is    15216.2 secs

     total energy              =  -13654.31163547 Ry
     estimated scf accuracy    <       0.00003582 Ry

     total magnetization       =   129.42 Bohr mag/cell
     absolute magnetization    =   137.42 Bohr mag/cell

     iteration # 53     ecut=    45.00 Ry     beta= 0.20
     Davidson diagonalization with overlap
     ethr =  4.12E-09,  avg # of iterations =  1.1

     negative rho (up, down):  0.000E+00 5.560E-03

     total cpu time spent up to now is    15467.6 secs

     total energy              =  -13654.31164963 Ry
     estimated scf accuracy    <       0.00002306 Ry

     total magnetization       =   129.42 Bohr mag/cell
     absolute magnetization    =   137.41 Bohr mag/cell

     iteration # 54     ecut=    45.00 Ry     beta= 0.20
     Davidson diagonalization with overlap
     ethr =  2.65E-09,  avg # of iterations =  2.0

     negative rho (up, down):  0.000E+00 5.562E-03

     total cpu time spent up to now is    15755.7 secs

     total energy              =  -13654.31165638 Ry
     estimated scf accuracy    <       0.00000619 Ry

     total magnetization       =   129.41 Bohr mag/cell
     absolute magnetization    =   137.40 Bohr mag/cell

     iteration # 55     ecut=    45.00 Ry     beta= 0.20
     Davidson diagonalization with overlap
     ethr =  7.11E-10,  avg # of iterations =  2.4

     negative rho (up, down):  0.000E+00 5.563E-03

     total cpu time spent up to now is    16061.9 secs

     total energy              =  -13654.31166089 Ry
     estimated scf accuracy    <       0.00000503 Ry

     total magnetization       =   129.40 Bohr mag/cell
     absolute magnetization    =   137.39 Bohr mag/cell

     iteration # 56     ecut=    45.00 Ry     beta= 0.20
     Davidson diagonalization with overlap
     ethr =  5.78E-10,  avg # of iterations =  2.0

     negative rho (up, down):  0.000E+00 5.565E-03

     total cpu time spent up to now is    16374.2 secs

     total energy              =  -13654.31166386 Ry
     estimated scf accuracy    <       0.00001783 Ry

     total magnetization       =   129.41 Bohr mag/cell
     absolute magnetization    =   137.39 Bohr mag/cell

     iteration # 57     ecut=    45.00 Ry     beta= 0.20
     Davidson diagonalization with overlap
     ethr =  5.78E-10,  avg # of iterations =  1.0

     negative rho (up, down):  0.000E+00 5.555E-03

     total cpu time spent up to now is    16623.7 secs

     total energy              =  -13654.31166335 Ry
     estimated scf accuracy    <       0.00002317 Ry

     total magnetization       =   129.41 Bohr mag/cell
     absolute magnetization    =   137.40 Bohr mag/cell

     iteration # 58     ecut=    45.00 Ry     beta= 0.20
     Davidson diagonalization with overlap
     ethr =  5.78E-10,  avg # of iterations =  2.0

     negative rho (up, down):  0.000E+00 5.551E-03

     total cpu time spent up to now is    16931.6 secs

     total energy              =  -13654.31166479 Ry
     estimated scf accuracy    <       0.00001644 Ry

     total magnetization       =   129.38 Bohr mag/cell
     absolute magnetization    =   137.36 Bohr mag/cell

     iteration # 59     ecut=    45.00 Ry     beta= 0.20
     Davidson diagonalization with overlap
     ethr =  5.78E-10,  avg # of iterations =  1.4

     negative rho (up, down):  0.000E+00 5.589E-03

     total cpu time spent up to now is    17195.4 secs

     total energy              =  -13654.31166574 Ry
     estimated scf accuracy    <       0.00002368 Ry

     total magnetization       =   129.38 Bohr mag/cell
     absolute magnetization    =   137.36 Bohr mag/cell

     iteration # 60     ecut=    45.00 Ry     beta= 0.20
     Davidson diagonalization with overlap
     ethr =  5.78E-10,  avg # of iterations =  2.1

     negative rho (up, down):  0.000E+00 5.580E-03

     total cpu time spent up to now is    17518.0 secs

     total energy              =  -13654.31166683 Ry
     estimated scf accuracy    <       0.00003033 Ry

     total magnetization       =   129.40 Bohr mag/cell
     absolute magnetization    =   137.39 Bohr mag/cell

     iteration # 61     ecut=    45.00 Ry     beta= 0.20
     Davidson diagonalization with overlap
     ethr =  5.78E-10,  avg # of iterations =  2.0

     negative rho (up, down):  0.000E+00 5.585E-03

     total cpu time spent up to now is    17820.1 secs

     total energy              =  -13654.31166707 Ry
     estimated scf accuracy    <       0.00001513 Ry

     total magnetization       =   129.40 Bohr mag/cell
     absolute magnetization    =   137.39 Bohr mag/cell

     iteration # 62     ecut=    45.00 Ry     beta= 0.20
     Davidson diagonalization with overlap
     ethr =  5.78E-10,  avg # of iterations =  2.0

     negative rho (up, down):  0.000E+00 5.587E-03

     total cpu time spent up to now is    18128.3 secs

     total energy              =  -13654.31166787 Ry
     estimated scf accuracy    <       0.00000823 Ry

     total magnetization       =   129.40 Bohr mag/cell
     absolute magnetization    =   137.39 Bohr mag/cell

     iteration # 63     ecut=    45.00 Ry     beta= 0.20
     Davidson diagonalization with overlap
     ethr =  5.78E-10,  avg # of iterations =  1.0

     negative rho (up, down):  0.000E+00 5.589E-03

     total cpu time spent up to now is    18379.1 secs

     total energy              =  -13654.31166790 Ry
     estimated scf accuracy    <       0.00001206 Ry

     total magnetization       =   129.40 Bohr mag/cell
     absolute magnetization    =   137.39 Bohr mag/cell

     iteration # 64     ecut=    45.00 Ry     beta= 0.20
     Davidson diagonalization with overlap
     ethr =  5.78E-10,  avg # of iterations =  1.9

     negative rho (up, down):  0.000E+00 5.584E-03

     total cpu time spent up to now is    18665.5 secs

     total energy              =  -13654.31166717 Ry
     estimated scf accuracy    <       0.00001643 Ry

     total magnetization       =   129.40 Bohr mag/cell
     absolute magnetization    =   137.39 Bohr mag/cell

     iteration # 65     ecut=    45.00 Ry     beta= 0.20
     Davidson diagonalization with overlap
     ethr =  5.78E-10,  avg # of iterations =  1.6

     negative rho (up, down):  0.000E+00 5.591E-03

     total cpu time spent up to now is    18940.0 secs

     total energy              =  -13654.31166620 Ry
     estimated scf accuracy    <       0.00000933 Ry

     total magnetization       =   129.41 Bohr mag/cell
     absolute magnetization    =   137.39 Bohr mag/cell

     iteration # 66     ecut=    45.00 Ry     beta= 0.20
     Davidson diagonalization with overlap
     ethr =  5.78E-10,  avg # of iterations =  2.0

     negative rho (up, down):  0.000E+00 5.594E-03

     total cpu time spent up to now is    19249.0 secs

     total energy              =  -13654.31166743 Ry
     estimated scf accuracy    <       0.00000626 Ry

     total magnetization       =   129.42 Bohr mag/cell
     absolute magnetization    =   137.41 Bohr mag/cell

     iteration # 67     ecut=    45.00 Ry     beta= 0.20
     Davidson diagonalization with overlap
     ethr =  5.78E-10,  avg # of iterations =  1.5

     negative rho (up, down):  0.000E+00 5.592E-03

     total cpu time spent up to now is    19519.7 secs

     total energy              =  -13654.31166814 Ry
     estimated scf accuracy    <       0.00000468 Ry

     total magnetization       =   129.43 Bohr mag/cell
     absolute magnetization    =   137.41 Bohr mag/cell

     iteration # 68     ecut=    45.00 Ry     beta= 0.20
     Davidson diagonalization with overlap
     ethr =  5.38E-10,  avg # of iterations =  1.2

     negative rho (up, down):  0.000E+00 5.583E-03

     total cpu time spent up to now is    19776.9 secs

     total energy              =  -13654.31166778 Ry
     estimated scf accuracy    <       0.00000392 Ry

     total magnetization       =   129.42 Bohr mag/cell
     absolute magnetization    =   137.40 Bohr mag/cell

     iteration # 69     ecut=    45.00 Ry     beta= 0.20
     Davidson diagonalization with overlap
     ethr =  4.51E-10,  avg # of iterations =  1.6

     negative rho (up, down):  0.000E+00 5.590E-03

     total cpu time spent up to now is    20049.5 secs

     total energy              =  -13654.31166855 Ry
     estimated scf accuracy    <       0.00000402 Ry

     total magnetization       =   129.41 Bohr mag/cell
     absolute magnetization    =   137.40 Bohr mag/cell

     iteration # 70     ecut=    45.00 Ry     beta= 0.20
     Davidson diagonalization with overlap
     ethr =  4.51E-10,  avg # of iterations =  1.7

     negative rho (up, down):  0.000E+00 5.593E-03

     total cpu time spent up to now is    20332.5 secs

     total energy              =  -13654.31166935 Ry
     estimated scf accuracy    <       0.00000211 Ry

     total magnetization       =   129.42 Bohr mag/cell
     absolute magnetization    =   137.40 Bohr mag/cell

     iteration # 71     ecut=    45.00 Ry     beta= 0.20
     Davidson diagonalization with overlap
     ethr =  2.43E-10,  avg # of iterations =  2.0

     negative rho (up, down):  0.000E+00 5.593E-03

     total cpu time spent up to now is    20654.9 secs

     total energy              =  -13654.31167000 Ry
     estimated scf accuracy    <       0.00000161 Ry

     total magnetization       =   129.42 Bohr mag/cell
     absolute magnetization    =   137.41 Bohr mag/cell

     iteration # 72     ecut=    45.00 Ry     beta= 0.20
     Davidson diagonalization with overlap
     ethr =  1.85E-10,  avg # of iterations =  2.0

     negative rho (up, down):  0.000E+00 5.600E-03

     Magnetic moment per site  (integrated on atomic sphere of radius R)
     atom   1 (R=0.119)  charge= 16.6529  magn=  0.9560
     atom   2 (R=0.119)  charge= 16.6564  magn=  0.9774
     atom   3 (R=0.119)  charge= 14.4111  magn=  2.5978
     atom   4 (R=0.119)  charge= 14.4319  magn=  2.4712
     atom   5 (R=0.119)  charge= 14.4111  magn=  2.5978
     atom   6 (R=0.119)  charge= 16.6564  magn=  0.9774
     atom   7 (R=0.119)  charge= 14.3980  magn=  2.6777
     atom   8 (R=0.119)  charge= 14.4269  magn=  2.4919
     atom   9 (R=0.119)  charge= 14.4090  magn=  2.6076
     atom  10 (R=0.119)  charge= 14.4237  magn=  2.4963
     atom  11 (R=0.119)  charge= 14.4090  magn=  2.6076
     atom  12 (R=0.119)  charge= 14.4269  magn=  2.4919
     atom  13 (R=0.119)  charge= 14.4250  magn=  2.4935
     atom  14 (R=0.119)  charge= 14.4128  magn=  2.5953
     atom  15 (R=0.119)  charge= 14.4230  magn=  2.5002
     atom  16 (R=0.119)  charge= 14.4225  magn=  2.5071
     atom  17 (R=0.119)  charge= 14.4230  magn=  2.5002
     atom  18 (R=0.119)  charge= 14.4128  magn=  2.5953
     atom  19 (R=0.119)  charge= 14.3980  magn=  2.6777
     atom  20 (R=0.119)  charge= 14.4269  magn=  2.4919
     atom  21 (R=0.119)  charge= 14.4090  magn=  2.6076
     atom  22 (R=0.119)  charge= 14.4237  magn=  2.4963
     atom  23 (R=0.119)  charge= 14.4090  magn=  2.6076
     atom  24 (R=0.119)  charge= 14.4269  magn=  2.4919
     atom  25 (R=0.119)  charge= 14.3967  magn=  2.6872
     atom  26 (R=0.119)  charge= 14.4228  magn=  2.5069
     atom  27 (R=0.119)  charge= 14.4086  magn=  2.6101
     atom  28 (R=0.119)  charge= 14.4193  magn=  2.5590
     atom  29 (R=0.119)  charge= 14.4086  magn=  2.6101
     atom  30 (R=0.119)  charge= 14.4228  magn=  2.5069
     atom  31 (R=0.119)  charge= 14.4214  magn=  2.5090
     atom  32 (R=0.119)  charge= 14.4219  magn=  2.5159
     atom  33 (R=0.119)  charge= 14.4225  magn=  2.5078
     atom  34 (R=0.119)  charge= 14.4216  magn=  2.5290
     atom  35 (R=0.119)  charge= 14.4225  magn=  2.5078
     atom  36 (R=0.119)  charge= 14.4219  magn=  2.5159
     atom  37 (R=0.119)  charge= 14.4250  magn=  2.4935
     atom  38 (R=0.119)  charge= 14.4128  magn=  2.5953
     atom  39 (R=0.119)  charge= 14.4230  magn=  2.5002
     atom  40 (R=0.119)  charge= 14.4225  magn=  2.5071
     atom  41 (R=0.119)  charge= 14.4230  magn=  2.5002
     atom  42 (R=0.119)  charge= 14.4128  magn=  2.5953
     atom  43 (R=0.119)  charge= 14.4214  magn=  2.5090
     atom  44 (R=0.119)  charge= 14.4219  magn=  2.5159
     atom  45 (R=0.119)  charge= 14.4225  magn=  2.5078
     atom  46 (R=0.119)  charge= 14.4216  magn=  2.5290
     atom  47 (R=0.119)  charge= 14.4225  magn=  2.5078
     atom  48 (R=0.119)  charge= 14.4219  magn=  2.5159
     atom  49 (R=0.119)  charge= 14.4245  magn=  2.4882
     atom  50 (R=0.119)  charge= 14.4090  magn=  2.6122
     atom  51 (R=0.119)  charge= 14.4219  magn=  2.5298
     atom  52 (R=0.119)  charge= 14.4217  magn=  2.5262
     atom  53 (R=0.119)  charge= 14.4219  magn=  2.5298
     atom  54 (R=0.119)  charge= 14.4090  magn=  2.6122

     total cpu time spent up to now is    20944.2 secs

     End of self-consistent calculation

 ------ SPIN UP ------------


          k = 0.0000 0.0000 0.0000 ( 21879 PWs)   bands (ev):

   -86.9194 -86.9186 -86.8346 -71.0348 -71.0079 -71.0078 -70.9076 -70.9016
   -70.9012 -70.9011 -70.8983 -70.8974 -70.8972 -70.8948 -70.8746 -70.8708
   -70.8575 -70.8541 -70.8526 -70.8489 -70.7733 -70.7579 -70.7574 -70.7516
   -70.7498 -70.7497 -70.7445 -70.7435 -70.7417 -70.7397 -70.7362 -70.7339
   -70.7281 -70.7259 -70.7244 -70.7238 -70.7209 -70.7208 -70.7159 -70.7156
   -70.7143 -70.7133 -70.7104 -70.7093 -70.7058 -70.7057 -70.7023 -70.6992
   -70.6982 -70.6972 -70.6924 -70.6906 -70.6817 -70.6627 -47.1095 -47.1030
   -47.1023 -47.0963 -47.0926 -47.0899 -47.0275 -46.9908 -46.9687 -37.1095
   -37.0978 -37.0943 -37.0569 -37.0306 -37.0296 -37.0280 -37.0145 -37.0049
   -37.0042 -37.0041 -37.0014 -36.9965 -36.9954 -36.9871 -36.9854 -36.9761
   -36.9759 -36.9722 -36.9719 -36.9663 -36.9640 -36.9629 -36.9554 -36.9530
   -36.9474 -36.9467 -36.9394 -36.9343 -36.9272 -36.9245 -36.9156 -36.9146
   -36.9146 -36.9105 -36.9066 -36.8996 -36.8952 -36.8876 -36.8867 -36.8768
   -36.8754 -36.8658 -36.8609 -36.8604 -36.8564 -36.8561 -36.8487 -36.8481
   -36.8480 -36.8477 -36.8430 -36.8423 -36.8407 -36.8349 -36.8343 -36.8333
   -36.8312 -36.8301 -36.8284 -36.8233 -36.8232 -36.8196 -36.8185 -36.8143
   -36.8124 -36.8089 -36.7990 -36.7949 -36.7937 -36.7932 -36.7900 -36.7869
   -36.7810 -36.7782 -36.7716 -36.7712 -36.7481 -36.7474 -36.7435 -36.7391
   -36.7348 -36.7332 -36.7296 -36.7255 -36.7230 -36.7220 -36.7217 -36.7180
   -36.7154 -36.7151 -36.7139 -36.7116 -36.7100 -36.7087 -36.7085 -36.7029
   -36.6974 -36.6938 -36.6922 -36.6910 -36.6880 -36.6877 -36.6865 -36.6779
   -36.6761 -36.6732 -36.6689 -36.6650 -36.6648 -36.6631 -36.6612 -36.6609
   -36.6592 -36.6566 -36.6528 -36.6515 -36.6506 -36.6484 -36.6472 -36.6465
   -36.6450 -36.6431 -36.6378 -36.6362 -36.6361 -36.6324 -36.6316 -36.6303
   -36.6282 -36.6266 -36.6244 -36.6237 -36.6235 -36.6193 -36.6193 -36.6182
   -36.6064 -36.6007 -36.6003 -36.5995 -36.5923 -36.5910 -36.5887 -36.5869
   -36.5857 -36.5848 -36.5793 -36.5777 -36.5763 -36.5758 -36.5752 -36.5661
     9.1183  11.0645  11.1383  11.1529  11.1842  11.2018  11.2203  12.2358
    12.2384  12.2660  12.3074  12.3114  12.3182  12.3251  12.3292  12.3402
    12.3407  12.3445  12.3492  12.7660  12.7666  13.1145  13.1225  13.1288
    13.1366  13.1372  13.1396  13.1468  13.1515  13.1528  13.1575  13.1589
    13.1613  13.3163  13.3193  13.3269  13.3341  13.3367  13.3514  13.6036
    13.6140  13.6179  13.6237  13.6243  13.6602  13.7190  13.7379  13.7390
    13.7458  13.7500  13.7563  13.7582  13.7669  13.7980  13.8019  13.8066
    13.8187  13.8217  13.8272  13.8403  13.8426  14.0698  14.0719  14.0843
    14.0858  14.0871  14.0882  14.1025  14.1146  14.1150  14.1233  14.1284
    14.1284  14.1385  14.1422  14.1498  14.1552  14.2902  14.2997  14.3126
    14.3169  14.3277  14.3283  14.3338  14.3382  14.3468  14.3474  14.3489
    14.3502  14.3522  14.3576  14.3580  14.3594  14.3743  14.3759  14.3762
    14.3853  14.3872  14.3886  14.3914  14.3928  14.3959  14.3978  14.4033
    14.4091  14.6201  14.6294  14.6319  14.6352  14.6458  14.6495  14.6497
    14.6567  14.6690  14.6693  14.6708  14.6714  14.6720  14.6740  14.6828
    14.6994  14.7051  14.7070  14.7078  14.7230  14.7263  14.7277  14.7341
    14.7364  15.0245  15.0415  15.0689  15.1542  15.1716  15.1722  15.1961
    15.1972  15.2012  15.2201  15.2216  15.2261  15.2446  15.2480  15.2516
    15.2634  15.2949  15.3129  15.3525  15.3778  15.4061  15.4112  15.4222
    15.4276  15.4447  15.4448  15.4484  15.4496  15.4694  15.4722  15.4755
    15.4790  15.4833  15.6032  15.6461  15.6476  15.6551  15.6637  15.6640
    15.7726  15.7908  15.8035  15.8137  15.8359  15.8609  15.9102  15.9331
    15.9480  15.9653  15.9785  15.9918  16.0490  16.0490  16.0669  16.0766
    16.0821  16.0840  16.0985  16.1065  16.1137  16.1231  16.1306  16.1358
    16.1445  16.1503  16.1578  16.1762  16.1848  16.1989  16.2293  16.2517
    16.2557  16.2642  16.2727  16.2739  16.2866  16.2944  16.3154  16.3179
    16.3265  16.3305  16.3372  16.3594  16.3733  16.3868  16.3893  16.3948
    16.3969  16.4076  16.4185  16.4209  16.4285  16.4327  16.4390  16.4461
    16.4669  16.4695  16.4708  16.4723  16.4862  16.4885  16.4920  16.4953
    16.4985  16.5007  16.5026  16.5230  16.5259  16.5317  16.5371  16.5431
    16.5591  16.5631  16.5674  16.5675  16.5678  16.5719  16.5740  16.5752
    16.5757  16.5902  16.6962  16.7114  16.7172  16.7288  16.7357  16.7392
    16.7433  16.7448  16.7480  16.7494  16.7653  16.7710  16.8289  16.8294
    16.8319  16.8622  16.8675  16.8842  16.9038  16.9136  16.9256  16.9261
    16.9264  16.9346  17.2847  17.2999  17.3080  17.4343  17.4636  17.4761
    17.4930  17.4963  17.5201  17.5327  17.5615  17.5638  17.5729  17.5756
    17.5825  19.1746  19.1843  19.1899  19.1953  19.2076  19.2115  19.2343
    19.2409  20.0217  20.0334  20.0408  20.0583  20.0605  20.0695  20.4338
    20.4394  20.4566

          k = 0.0000 0.0000 0.3333 ( 21891 PWs)   bands (ev):

   -86.9195 -86.9186 -86.8346 -71.0348 -71.0080 -71.0078 -70.9076 -70.9017
   -70.9012 -70.9009 -70.8993 -70.8972 -70.8965 -70.8953 -70.8742 -70.8713
   -70.8574 -70.8543 -70.8518 -70.8495 -70.7714 -70.7638 -70.7573 -70.7517
   -70.7498 -70.7482 -70.7437 -70.7416 -70.7409 -70.7403 -70.7360 -70.7335
   -70.7274 -70.7257 -70.7245 -70.7234 -70.7225 -70.7215 -70.7170 -70.7165
   -70.7126 -70.7114 -70.7105 -70.7095 -70.7081 -70.7062 -70.7048 -70.7015
   -70.6960 -70.6930 -70.6927 -70.6890 -70.6832 -70.6627 -47.1110 -47.1035
   -47.0976 -47.0975 -47.0923 -47.0861 -47.0292 -46.9940 -46.9764 -37.1102
   -37.0967 -37.0944 -37.0587 -37.0336 -37.0328 -37.0262 -37.0079 -37.0057
   -37.0020 -36.9988 -36.9972 -36.9944 -36.9926 -36.9919 -36.9809 -36.9798
   -36.9755 -36.9695 -36.9674 -36.9651 -36.9611 -36.9555 -36.9551 -36.9521
   -36.9462 -36.9409 -36.9391 -36.9329 -36.9322 -36.9257 -36.9215 -36.9185
   -36.9145 -36.9114 -36.9075 -36.9048 -36.9042 -36.8991 -36.8938 -36.8773
   -36.8745 -36.8725 -36.8707 -36.8671 -36.8606 -36.8579 -36.8524 -36.8476
   -36.8446 -36.8427 -36.8399 -36.8332 -36.8316 -36.8281 -36.8260 -36.8249
   -36.8241 -36.8198 -36.8187 -36.8131 -36.8116 -36.8087 -36.8046 -36.8033
   -36.8013 -36.7947 -36.7941 -36.7846 -36.7821 -36.7813 -36.7798 -36.7764
   -36.7741 -36.7732 -36.7708 -36.7649 -36.7593 -36.7547 -36.7529 -36.7492
   -36.7487 -36.7471 -36.7438 -36.7374 -36.7346 -36.7341 -36.7313 -36.7258
   -36.7246 -36.7228 -36.7212 -36.7201 -36.7137 -36.7112 -36.7080 -36.7044
   -36.7021 -36.7009 -36.6973 -36.6969 -36.6964 -36.6916 -36.6884 -36.6830
   -36.6813 -36.6789 -36.6740 -36.6738 -36.6706 -36.6617 -36.6603 -36.6593
   -36.6585 -36.6578 -36.6558 -36.6524 -36.6513 -36.6464 -36.6401 -36.6391
   -36.6387 -36.6342 -36.6313 -36.6299 -36.6271 -36.6246 -36.6212 -36.6210
   -36.6193 -36.6186 -36.6165 -36.6164 -36.6142 -36.6136 -36.6107 -36.6097
   -36.6071 -36.6065 -36.6059 -36.5998 -36.5982 -36.5969 -36.5959 -36.5947
   -36.5941 -36.5938 -36.5925 -36.5908 -36.5907 -36.5839 -36.5822 -36.5755
     9.3570  10.0763  11.2704  11.3232  11.3651  11.3993  11.7488  11.8008
    11.8341  11.8599  12.3429  12.4811  12.5050  12.5192  12.5208  12.6231
    12.6518  12.6674  12.6719  12.8697  12.8911  12.8935  12.9036  12.9126
    12.9199  13.0434  13.0719  13.0861  13.0877  13.1297  13.1792  13.1938
    13.2976  13.3052  13.3183  13.3256  13.3354  13.3374  13.3490  13.3582
    13.3822  13.3857  13.3940  13.4199  13.6570  13.6706  13.6764  13.6780
    13.6795  13.6884  13.6934  13.7076  13.7120  13.7126  13.7151  13.7246
    13.7317  13.7369  13.7566  13.7682  14.0437  14.0563  14.0644  14.0793
    14.0867  14.0970  14.1057  14.1140  14.1224  14.1401  14.1690  14.1833
    14.1839  14.1907  14.2206  14.2229  14.2349  14.2445  14.2450  14.2589
    14.2704  14.2819  14.2857  14.2919  14.3062  14.3101  14.3104  14.3194
    14.3294  14.3684  14.3912  14.4024  14.4306  14.4328  14.4523  14.4544
    14.4588  14.4926  14.5101  14.5266  14.5310  14.5373  14.5427  14.5526
    14.5582  14.5643  14.5650  14.5712  14.5792  14.5870  14.5953  14.5967
    14.6057  14.6238  14.6312  14.6396  14.6431  14.6459  14.6564  14.6750
    14.6847  14.7913  14.8338  14.8485  14.8512  14.9351  14.9375  14.9653
    14.9742  14.9746  14.9897  14.9933  14.9983  15.0112  15.0803  15.0841
    15.0856  15.0929  15.0935  15.0980  15.1219  15.1272  15.1397  15.1599
    15.1696  15.1758  15.2123  15.2141  15.2327  15.2331  15.2428  15.3500
    15.3523  15.3574  15.5437  15.5631  15.6064  15.6119  15.6266  15.6299
    15.6442  15.6557  15.6633  15.6672  15.6785  15.7088  15.7322  15.7696
    15.7837  15.7871  15.8337  15.8422  15.8591  15.8782  15.9193  15.9413
    15.9460  15.9534  15.9777  15.9796  16.0002  16.0078  16.0083  16.0197
    16.0224  16.0437  16.0466  16.0485  16.0737  16.1129  16.1351  16.1407
    16.1517  16.1534  16.1685  16.1839  16.2020  16.2116  16.2365  16.2417
    16.2519  16.2630  16.2729  16.2831  16.2873  16.2986  16.3005  16.3210
    16.3415  16.3418  16.3510  16.3628  16.3635  16.3750  16.3891  16.3946
    16.4022  16.4024  16.4060  16.4148  16.4240  16.4296  16.4343  16.4411
    16.4427  16.4471  16.4523  16.4561  16.4623  16.4737  16.4747  16.4765
    16.4796  16.4827  16.4888  16.5137  16.5217  16.5364  16.5454  16.5572
    16.5676  16.5725  16.5800  16.5948  16.5965  16.5995  16.6142  16.6459
    16.6585  16.6653  16.6774  16.6882  16.7890  16.8102  16.8460  16.8509
    16.9077  16.9375  16.9640  16.9989  17.0237  17.0477  17.0997  17.1217
    17.1525  17.1648  17.1717  17.1765  17.1821  17.1888  17.2022  17.2297
    17.2561  17.2605  17.2764  17.2901  17.2963  17.3667  17.3753  17.3785
    17.3811  17.3941  17.3961  17.4078  17.4325  17.4583  17.4775  17.4835
    17.5119  18.1180  18.2052  18.2201  18.2396  18.2528  18.7525  18.8019
    18.8381  18.8723  20.2849  20.2900  20.3091  20.3145  20.4029  20.4062
    20.4109  20.4155

          k = 0.0000 0.3333 0.3333 ( 21886 PWs)   bands (ev):

   -86.9195 -86.9186 -86.8346 -71.0348 -71.0080 -71.0078 -70.9073 -70.9016
   -70.9013 -70.9009 -70.8995 -70.8972 -70.8965 -70.8954 -70.8742 -70.8713
   -70.8574 -70.8542 -70.8518 -70.8495 -70.7708 -70.7635 -70.7583 -70.7549
   -70.7498 -70.7459 -70.7440 -70.7414 -70.7405 -70.7391 -70.7350 -70.7334
   -70.7281 -70.7250 -70.7242 -70.7230 -70.7215 -70.7205 -70.7173 -70.7168
   -70.7158 -70.7139 -70.7120 -70.7100 -70.7075 -70.7054 -70.7041 -70.7004
   -70.6948 -70.6930 -70.6915 -70.6897 -70.6839 -70.6627 -47.1131 -47.1009
   -47.0995 -47.0976 -47.0915 -47.0874 -47.0281 -46.9934 -46.9741 -37.1103
   -37.0977 -37.0943 -37.0589 -37.0349 -37.0334 -37.0264 -37.0089 -37.0069
   -37.0034 -37.0014 -36.9998 -36.9949 -36.9932 -36.9905 -36.9833 -36.9796
   -36.9777 -36.9696 -36.9667 -36.9633 -36.9613 -36.9571 -36.9560 -36.9496
   -36.9475 -36.9400 -36.9385 -36.9356 -36.9299 -36.9258 -36.9224 -36.9201
   -36.9152 -36.9123 -36.9108 -36.9050 -36.9025 -36.8981 -36.8932 -36.8807
   -36.8783 -36.8720 -36.8666 -36.8637 -36.8614 -36.8584 -36.8534 -36.8479
   -36.8449 -36.8427 -36.8413 -36.8372 -36.8338 -36.8301 -36.8287 -36.8254
   -36.8224 -36.8207 -36.8178 -36.8159 -36.8087 -36.8081 -36.8066 -36.8017
   -36.7986 -36.7960 -36.7920 -36.7909 -36.7873 -36.7829 -36.7782 -36.7740
   -36.7720 -36.7659 -36.7640 -36.7603 -36.7584 -36.7575 -36.7536 -36.7524
   -36.7480 -36.7443 -36.7430 -36.7392 -36.7350 -36.7340 -36.7295 -36.7254
   -36.7223 -36.7207 -36.7188 -36.7171 -36.7142 -36.7110 -36.7069 -36.7060
   -36.7035 -36.7022 -36.6993 -36.6976 -36.6961 -36.6943 -36.6917 -36.6877
   -36.6825 -36.6806 -36.6764 -36.6749 -36.6734 -36.6717 -36.6675 -36.6613
   -36.6604 -36.6573 -36.6530 -36.6487 -36.6466 -36.6437 -36.6416 -36.6379
   -36.6348 -36.6336 -36.6316 -36.6277 -36.6260 -36.6232 -36.6207 -36.6194
   -36.6175 -36.6169 -36.6162 -36.6145 -36.6132 -36.6119 -36.6079 -36.6065
   -36.6047 -36.6039 -36.6026 -36.6004 -36.5997 -36.5972 -36.5968 -36.5952
   -36.5943 -36.5924 -36.5898 -36.5875 -36.5861 -36.5837 -36.5788 -36.5758
     9.5993  10.2793  10.3192  10.9349  11.5208  11.5337  11.9892  12.0014
    12.0208  12.0377  12.4285  12.4714  12.5318  12.5479  12.6173  12.6363
    12.6415  12.7223  12.8141  12.8256  12.8317  12.8446  12.9658  12.9937
    13.0466  13.0645  13.0712  13.0732  13.1240  13.1424  13.2039  13.2187
    13.2341  13.2414  13.2716  13.2785  13.2856  13.2954  13.3034  13.3101
    13.3176  13.4483  13.4531  13.4599  13.4621  13.4691  13.4932  13.4974
    13.5142  13.5239  13.5397  13.6206  13.6932  13.7114  13.7182  13.7338
    13.7991  13.8199  13.9129  13.9154  13.9385  13.9519  13.9980  14.0069
    14.0319  14.0405  14.0474  14.0558  14.0608  14.0679  14.1040  14.1090
    14.1211  14.1275  14.1530  14.1771  14.1816  14.1918  14.1935  14.1949
    14.1982  14.2020  14.2121  14.2193  14.2396  14.2473  14.3212  14.3259
    14.3305  14.3373  14.3508  14.3579  14.4126  14.4239  14.4993  14.5094
    14.5127  14.5192  14.5363  14.5392  14.5578  14.5717  14.5869  14.6077
    14.6546  14.6624  14.6734  14.7023  14.7136  14.7214  14.7379  14.7410
    14.7459  14.7688  14.7783  14.7854  14.7957  14.8001  14.8076  14.8398
    14.8434  14.8546  14.8670  14.8711  14.8785  14.8837  14.8897  14.8968
    14.9029  14.9102  14.9146  14.9197  14.9226  14.9251  14.9290  14.9379
    14.9407  14.9661  14.9694  15.0323  15.0402  15.0561  15.0587  15.1155
    15.1464  15.1538  15.1827  15.1881  15.2527  15.3128  15.3372  15.3601
    15.3833  15.3901  15.4117  15.4341  15.4402  15.5727  15.5811  15.6214
    15.6265  15.6604  15.6727  15.6845  15.7376  15.7554  15.7776  15.7998
    15.8593  15.8854  15.9091  15.9339  15.9657  15.9716  16.0086  16.0264
    16.0392  16.0559  16.0636  16.0799  16.0967  16.1137  16.1219  16.1279
    16.1357  16.1522  16.1577  16.1677  16.1756  16.1853  16.2004  16.2065
    16.2210  16.2249  16.2372  16.2443  16.2501  16.2544  16.2623  16.2679
    16.2815  16.2858  16.2924  16.3062  16.3122  16.3166  16.3213  16.3251
    16.3354  16.3429  16.3526  16.3563  16.3610  16.3652  16.3708  16.3744
    16.3868  16.4051  16.4108  16.4194  16.4232  16.4296  16.4345  16.4372
    16.4480  16.4562  16.4832  16.4899  16.4985  16.5069  16.5092  16.5150
    16.5268  16.5352  16.5366  16.5461  16.5513  16.5569  16.5711  16.5799
    16.6164  16.6238  16.6387  16.6493  16.6662  16.6737  16.6809  16.6885
    16.7069  16.7134  16.7353  16.7384  16.7685  16.7714  16.7956  16.8113
    16.8328  16.8377  16.8610  16.8909  16.9034  16.9175  17.0207  17.0404
    17.0617  17.0718  17.0821  17.0878  17.0994  17.1121  17.1217  17.1469
    17.1587  17.1638  17.1836  17.1910  17.2062  17.2122  17.3099  17.3526
    17.3766  17.3877  17.4467  17.4659  17.4739  17.5098  17.5882  18.0846
    18.0930  18.1436  18.1510  18.2348  18.2666  18.4036  18.6010  18.6171
    19.1980  19.2154  19.2214  19.2443  19.4739  19.4878  19.4906  19.4922
    20.5775  20.6036

          k = 0.3333 0.3333 0.3333 ( 21842 PWs)   bands (ev):

   -86.9195 -86.9185 -86.8346 -71.0348 -71.0080 -71.0078 -70.9071 -70.9014
   -70.9013 -70.9009 -70.8995 -70.8973 -70.8966 -70.8955 -70.8742 -70.8713
   -70.8573 -70.8541 -70.8519 -70.8495 -70.7700 -70.7630 -70.7591 -70.7553
   -70.7540 -70.7444 -70.7419 -70.7416 -70.7396 -70.7382 -70.7342 -70.7334
   -70.7285 -70.7243 -70.7237 -70.7228 -70.7204 -70.7196 -70.7181 -70.7169
   -70.7164 -70.7153 -70.7139 -70.7138 -70.7068 -70.7042 -70.7040 -70.6979
   -70.6945 -70.6930 -70.6910 -70.6903 -70.6845 -70.6627 -47.1109 -47.1004
   -47.0959 -47.0950 -47.0894 -47.0830 -47.0261 -46.9903 -46.9695 -37.1102
   -37.0984 -37.0933 -37.0584 -37.0347 -37.0343 -37.0253 -37.0106 -37.0079
   -37.0044 -37.0039 -37.0013 -36.9933 -36.9910 -36.9909 -36.9834 -36.9822
   -36.9783 -36.9697 -36.9670 -36.9634 -36.9596 -36.9545 -36.9539 -36.9469
   -36.9449 -36.9378 -36.9358 -36.9325 -36.9307 -36.9243 -36.9225 -36.9178
   -36.9165 -36.9135 -36.9125 -36.9060 -36.9041 -36.8974 -36.8964 -36.8867
   -36.8741 -36.8686 -36.8655 -36.8620 -36.8591 -36.8561 -36.8534 -36.8517
   -36.8517 -36.8479 -36.8427 -36.8366 -36.8364 -36.8336 -36.8294 -36.8283
   -36.8219 -36.8213 -36.8198 -36.8126 -36.8049 -36.8015 -36.8004 -36.7958
   -36.7951 -36.7943 -36.7880 -36.7877 -36.7806 -36.7769 -36.7754 -36.7720
   -36.7697 -36.7667 -36.7649 -36.7612 -36.7577 -36.7548 -36.7514 -36.7483
   -36.7460 -36.7433 -36.7395 -36.7368 -36.7339 -36.7330 -36.7306 -36.7268
   -36.7260 -36.7239 -36.7179 -36.7168 -36.7154 -36.7137 -36.7083 -36.7080
   -36.7063 -36.7057 -36.7010 -36.7001 -36.6978 -36.6960 -36.6931 -36.6904
   -36.6891 -36.6862 -36.6819 -36.6793 -36.6712 -36.6660 -36.6629 -36.6623
   -36.6535 -36.6512 -36.6480 -36.6474 -36.6457 -36.6406 -36.6368 -36.6348
   -36.6325 -36.6276 -36.6271 -36.6244 -36.6243 -36.6221 -36.6206 -36.6175
   -36.6173 -36.6158 -36.6158 -36.6130 -36.6127 -36.6125 -36.6079 -36.6063
   -36.6036 -36.6030 -36.6012 -36.6004 -36.5990 -36.5986 -36.5955 -36.5939
   -36.5939 -36.5924 -36.5904 -36.5882 -36.5855 -36.5852 -36.5845 -36.5798
     9.8363  10.4704  10.5371  10.5649  11.1039  11.1666  11.1891  11.7556
    12.5065  12.5811  12.6196  12.7380  12.7694  12.7929  12.8026  12.8043
    12.8138  12.8153  12.8227  12.8317  12.8733  12.8831  12.8851  13.0668
    13.0677  13.1470  13.1691  13.1757  13.2207  13.2395  13.2537  13.2616
    13.2644  13.2666  13.2903  13.2928  13.3016  13.3049  13.3104  13.3110
    13.3199  13.3244  13.3323  13.3386  13.3428  13.3441  13.3489  13.3546
    13.3605  13.4566  13.4593  13.4620  13.5582  13.5751  13.5789  13.6586
    13.6686  13.6891  13.8105  13.8109  13.9389  13.9916  14.0104  14.0235
    14.0262  14.0377  14.0553  14.0711  14.0885  14.0888  14.1002  14.1081
    14.1143  14.1302  14.1322  14.1343  14.1461  14.1507  14.1566  14.1572
    14.1716  14.2215  14.2340  14.2467  14.2788  14.2921  14.3037  14.3162
    14.3244  14.3331  14.3504  14.3519  14.3651  14.3889  14.4162  14.4172
    14.4298  14.4518  14.4635  14.4747  14.4796  14.5125  14.5258  14.5550
    14.6055  14.6116  14.6191  14.6414  14.6592  14.6897  14.7063  14.7379
    14.7539  14.7660  14.7733  14.7841  14.7885  14.7971  14.8053  14.8262
    14.8304  14.8358  14.8426  14.8497  14.8577  14.8600  14.8626  14.8718
    14.8721  14.8777  14.8818  14.8885  14.9000  14.9092  14.9243  14.9494
    14.9651  15.0026  15.0175  15.0179  15.1099  15.1746  15.1961  15.2533
    15.2593  15.2711  15.3198  15.3333  15.3413  15.3859  15.3908  15.4052
    15.5483  15.6054  15.6196  15.6779  15.6922  15.7200  15.7390  15.7497
    15.7529  15.7853  15.8059  15.8109  15.8203  15.8423  15.8507  15.8627
    15.8657  15.9008  15.9106  15.9230  15.9236  15.9432  15.9612  15.9989
    16.0102  16.0320  16.0459  16.0488  16.0513  16.0642  16.0685  16.0983
    16.1158  16.1230  16.1364  16.1575  16.1638  16.1678  16.1811  16.1888
    16.1932  16.2022  16.2201  16.2331  16.2466  16.2530  16.2709  16.2722
    16.2825  16.2865  16.2947  16.3041  16.3154  16.3331  16.3334  16.3392
    16.3485  16.3510  16.3628  16.3667  16.3833  16.3848  16.3894  16.4003
    16.4020  16.4042  16.4118  16.4151  16.4294  16.4357  16.4437  16.4533
    16.4629  16.4715  16.4915  16.5013  16.5117  16.5123  16.5166  16.5309
    16.5363  16.5497  16.5595  16.5654  16.5668  16.5791  16.5854  16.5958
    16.6017  16.6148  16.6234  16.6392  16.6460  16.6661  16.6736  16.7143
    16.7235  16.7299  16.7370  16.7422  16.7524  16.7783  16.7791  16.8003
    16.8079  16.8220  16.8232  16.8355  16.8581  16.9245  16.9427  16.9480
    16.9603  16.9705  16.9830  16.9860  17.0041  17.0178  17.1674  17.1690
    17.1760  17.2136  17.2229  17.2262  17.2425  17.2515  17.2708  17.2766
    17.2927  17.5546  17.5608  17.5767  17.6270  17.6278  17.6480  18.3400
    18.3529  18.3853  18.4790  18.4888  18.5129  18.6551  18.7496  18.7792
    18.9815  18.9966  18.9976  19.0432  19.0605  19.0780  19.3597  19.3758
    19.4302  19.7785

          k = 0.3333 0.0000 0.0000 ( 21891 PWs)   bands (ev):

   -86.9195 -86.9186 -86.8346 -71.0348 -71.0080 -71.0078 -70.9074 -70.9019
   -70.9011 -70.9011 -70.8985 -70.8975 -70.8972 -70.8949 -70.8747 -70.8707
   -70.8575 -70.8541 -70.8526 -70.8488 -70.7729 -70.7596 -70.7572 -70.7539
   -70.7495 -70.7476 -70.7448 -70.7447 -70.7403 -70.7391 -70.7350 -70.7338
   -70.7291 -70.7247 -70.7243 -70.7227 -70.7208 -70.7199 -70.7169 -70.7161
   -70.7157 -70.7141 -70.7136 -70.7098 -70.7056 -70.7041 -70.7013 -70.6992
   -70.6980 -70.6973 -70.6912 -70.6899 -70.6824 -70.6627 -47.1096 -47.1023
   -47.1010 -47.0985 -47.0909 -47.0858 -47.0279 -46.9953 -46.9760 -37.1100
   -37.0975 -37.0944 -37.0565 -37.0298 -37.0287 -37.0252 -37.0130 -37.0083
   -37.0053 -37.0018 -37.0005 -36.9975 -36.9920 -36.9866 -36.9834 -36.9773
   -36.9737 -36.9728 -36.9679 -36.9622 -36.9591 -36.9571 -36.9541 -36.9526
   -36.9510 -36.9436 -36.9383 -36.9329 -36.9279 -36.9271 -36.9232 -36.9173
   -36.9114 -36.9111 -36.9084 -36.9014 -36.8930 -36.8929 -36.8874 -36.8836
   -36.8785 -36.8724 -36.8696 -36.8694 -36.8662 -36.8594 -36.8572 -36.8538
   -36.8478 -36.8434 -36.8408 -36.8369 -36.8323 -36.8302 -36.8271 -36.8263
   -36.8200 -36.8151 -36.8131 -36.8101 -36.8064 -36.8038 -36.8028 -36.7998
   -36.7964 -36.7950 -36.7926 -36.7904 -36.7883 -36.7846 -36.7802 -36.7796
   -36.7760 -36.7729 -36.7675 -36.7649 -36.7560 -36.7541 -36.7519 -36.7493
   -36.7479 -36.7457 -36.7419 -36.7377 -36.7369 -36.7354 -36.7341 -36.7287
   -36.7263 -36.7220 -36.7200 -36.7168 -36.7160 -36.7159 -36.7075 -36.7069
   -36.7033 -36.7023 -36.6992 -36.6987 -36.6983 -36.6947 -36.6884 -36.6878
   -36.6768 -36.6757 -36.6729 -36.6674 -36.6656 -36.6627 -36.6612 -36.6575
   -36.6557 -36.6536 -36.6530 -36.6501 -36.6466 -36.6456 -36.6432 -36.6430
   -36.6381 -36.6332 -36.6331 -36.6279 -36.6274 -36.6253 -36.6243 -36.6238
   -36.6228 -36.6218 -36.6187 -36.6170 -36.6155 -36.6126 -36.6105 -36.6104
   -36.6079 -36.6060 -36.6054 -36.6004 -36.5977 -36.5973 -36.5960 -36.5938
   -36.5931 -36.5918 -36.5915 -36.5890 -36.5879 -36.5858 -36.5840 -36.5758
     9.3562  10.0786  11.2934  11.3295  11.3404  11.3832  11.7792  11.8069
    11.8167  11.8480  12.3496  12.4804  12.5033  12.5132  12.5188  12.6399
    12.6540  12.6565  12.6694  12.8712  12.8888  12.8975  12.8991  12.9090
    12.9205  13.0576  13.0701  13.0823  13.0878  13.1306  13.1839  13.1959
    13.3019  13.3092  13.3169  13.3244  13.3261  13.3304  13.3420  13.3537
    13.3902  13.3971  13.4000  13.4124  13.6647  13.6671  13.6704  13.6811
    13.6913  13.6934  13.6954  13.7041  13.7059  13.7092  13.7128  13.7159
    13.7337  13.7376  13.7514  13.7618  14.0587  14.0625  14.0638  14.0753
    14.0819  14.1005  14.1008  14.1090  14.1131  14.1212  14.1582  14.1758
    14.1866  14.1988  14.2093  14.2275  14.2331  14.2338  14.2550  14.2613
    14.2771  14.2896  14.2915  14.2950  14.2974  14.3129  14.3143  14.3218
    14.3263  14.3671  14.3819  14.3951  14.4170  14.4550  14.4564  14.4702
    14.4776  14.5062  14.5141  14.5216  14.5257  14.5296  14.5362  14.5453
    14.5591  14.5650  14.5721  14.5752  14.5768  14.5834  14.5872  14.5940
    14.6008  14.6369  14.6372  14.6489  14.6523  14.6545  14.6563  14.6707
    14.6782  14.7899  14.8481  14.8546  14.8627  14.9239  14.9372  14.9519
    14.9661  14.9669  14.9867  14.9872  14.9936  15.0095  15.0716  15.0821
    15.0841  15.0861  15.0879  15.0949  15.1212  15.1325  15.1397  15.1661
    15.1668  15.1752  15.2004  15.2246  15.2289  15.2340  15.2458  15.3511
    15.3585  15.3649  15.5564  15.5790  15.5966  15.6046  15.6155  15.6211
    15.6349  15.6536  15.6711  15.6715  15.6941  15.7224  15.7350  15.7652
    15.7880  15.8256  15.8261  15.8432  15.8651  15.8659  15.9037  15.9141
    15.9495  15.9567  15.9633  15.9866  15.9934  16.0011  16.0131  16.0246
    16.0271  16.0367  16.0408  16.0460  16.1158  16.1158  16.1354  16.1389
    16.1520  16.1629  16.1710  16.1736  16.1864  16.2072  16.2276  16.2317
    16.2579  16.2646  16.2856  16.2889  16.2969  16.3022  16.3049  16.3188
    16.3273  16.3293  16.3592  16.3620  16.3652  16.3718  16.3766  16.3780
    16.3932  16.3975  16.4014  16.4170  16.4239  16.4240  16.4322  16.4462
    16.4522  16.4585  16.4606  16.4690  16.4739  16.4748  16.4782  16.4784
    16.4936  16.4961  16.5075  16.5081  16.5179  16.5218  16.5355  16.5537
    16.5590  16.5735  16.5767  16.5892  16.5943  16.6006  16.6267  16.6463
    16.6619  16.6784  16.6797  16.6848  16.7558  16.7884  16.8398  16.8442
    16.9036  16.9639  16.9909  17.0057  17.0123  17.0809  17.1053  17.1110
    17.1438  17.1537  17.1674  17.1734  17.1830  17.1856  17.2049  17.2202
    17.2347  17.2563  17.2794  17.2849  17.2881  17.3737  17.3746  17.3830
    17.3843  17.3999  17.4011  17.4134  17.4246  17.4701  17.4770  17.4911
    17.5076  18.1212  18.2150  18.2213  18.2378  18.2402  18.7739  18.8087
    18.8176  18.8574  20.2831  20.2941  20.2952  20.3142  20.4029  20.4081
    20.4094  20.4122

          k = 0.3333-0.3333 0.0000 ( 21886 PWs)   bands (ev):

   -86.9195 -86.9185 -86.8346 -71.0348 -71.0080 -71.0078 -70.9071 -70.9018
   -70.9012 -70.9011 -70.8988 -70.8974 -70.8972 -70.8950 -70.8747 -70.8707
   -70.8574 -70.8540 -70.8526 -70.8489 -70.7722 -70.7604 -70.7567 -70.7562
   -70.7493 -70.7490 -70.7450 -70.7419 -70.7409 -70.7372 -70.7343 -70.7334
   -70.7300 -70.7232 -70.7226 -70.7226 -70.7212 -70.7202 -70.7173 -70.7164
   -70.7164 -70.7157 -70.7146 -70.7129 -70.7055 -70.7017 -70.7011 -70.6986
   -70.6979 -70.6974 -70.6901 -70.6897 -70.6834 -70.6627 -47.1083 -47.1034
   -47.1027 -47.0977 -47.0908 -47.0881 -47.0280 -46.9929 -46.9738 -37.1107
   -37.0980 -37.0946 -37.0563 -37.0309 -37.0296 -37.0251 -37.0141 -37.0105
   -37.0066 -37.0019 -37.0013 -37.0011 -36.9903 -36.9871 -36.9863 -36.9791
   -36.9733 -36.9714 -36.9701 -36.9644 -36.9590 -36.9557 -36.9540 -36.9529
   -36.9500 -36.9416 -36.9343 -36.9341 -36.9299 -36.9277 -36.9224 -36.9203
   -36.9146 -36.9112 -36.9081 -36.8985 -36.8953 -36.8942 -36.8895 -36.8829
   -36.8815 -36.8756 -36.8716 -36.8676 -36.8652 -36.8580 -36.8516 -36.8501
   -36.8489 -36.8421 -36.8403 -36.8389 -36.8363 -36.8311 -36.8286 -36.8268
   -36.8222 -36.8206 -36.8149 -36.8132 -36.8087 -36.8051 -36.8025 -36.8003
   -36.7993 -36.7965 -36.7936 -36.7887 -36.7875 -36.7832 -36.7828 -36.7743
   -36.7697 -36.7691 -36.7676 -36.7608 -36.7585 -36.7573 -36.7537 -36.7501
   -36.7472 -36.7461 -36.7407 -36.7381 -36.7328 -36.7296 -36.7276 -36.7270
   -36.7230 -36.7212 -36.7183 -36.7164 -36.7160 -36.7137 -36.7110 -36.7043
   -36.7034 -36.7024 -36.6988 -36.6974 -36.6938 -36.6926 -36.6913 -36.6859
   -36.6834 -36.6809 -36.6762 -36.6758 -36.6714 -36.6690 -36.6662 -36.6650
   -36.6600 -36.6550 -36.6530 -36.6499 -36.6473 -36.6456 -36.6441 -36.6431
   -36.6393 -36.6375 -36.6271 -36.6268 -36.6240 -36.6219 -36.6213 -36.6192
   -36.6191 -36.6163 -36.6158 -36.6138 -36.6126 -36.6099 -36.6086 -36.6084
   -36.6075 -36.6026 -36.6018 -36.5998 -36.5977 -36.5961 -36.5952 -36.5951
   -36.5931 -36.5908 -36.5888 -36.5879 -36.5876 -36.5851 -36.5792 -36.5768
     9.5981  10.2803  10.3209  10.9387  11.5152  11.5301  11.9842  12.0026
    12.0263  12.0336  12.4301  12.4731  12.5393  12.5448  12.6146  12.6389
    12.6423  12.7263  12.8078  12.8273  12.8369  12.8417  12.9654  12.9942
    13.0533  13.0605  13.0673  13.0700  13.1167  13.1443  13.2025  13.2198
    13.2340  13.2467  13.2721  13.2850  13.2905  13.3008  13.3021  13.3089
    13.3228  13.4512  13.4516  13.4559  13.4587  13.4656  13.4798  13.4991
    13.5094  13.5342  13.5371  13.6223  13.7001  13.7097  13.7256  13.7263
    13.7846  13.8095  13.9114  13.9157  13.9377  13.9489  14.0118  14.0136
    14.0364  14.0416  14.0484  14.0538  14.0548  14.0795  14.0992  14.1071
    14.1267  14.1406  14.1488  14.1570  14.1629  14.1846  14.1901  14.1933
    14.1951  14.2038  14.2186  14.2272  14.2480  14.2526  14.3142  14.3155
    14.3298  14.3326  14.3624  14.3625  14.4252  14.4262  14.5072  14.5158
    14.5182  14.5224  14.5354  14.5384  14.5470  14.5698  14.5826  14.6091
    14.6487  14.6491  14.6772  14.7100  14.7115  14.7303  14.7362  14.7442
    14.7454  14.7801  14.7836  14.7883  14.7932  14.7949  14.8113  14.8453
    14.8464  14.8627  14.8677  14.8702  14.8732  14.8757  14.8830  14.8981
    14.8988  14.9042  14.9066  14.9165  14.9179  14.9207  14.9236  14.9271
    14.9411  14.9571  14.9692  15.0300  15.0493  15.0532  15.0636  15.1204
    15.1444  15.1623  15.1889  15.1898  15.2522  15.3138  15.3399  15.3561
    15.3776  15.3936  15.4070  15.4347  15.4488  15.5591  15.5924  15.6253
    15.6343  15.6542  15.6681  15.6936  15.7065  15.7503  15.7868  15.8727
    15.8740  15.8964  15.9147  15.9435  15.9606  15.9732  15.9785  16.0211
    16.0268  16.0616  16.0662  16.0776  16.0866  16.0995  16.1121  16.1228
    16.1379  16.1455  16.1518  16.1695  16.1795  16.1814  16.1981  16.2011
    16.2224  16.2322  16.2325  16.2394  16.2468  16.2474  16.2581  16.2666
    16.2767  16.2930  16.2966  16.3002  16.3043  16.3145  16.3214  16.3256
    16.3322  16.3337  16.3430  16.3520  16.3526  16.3610  16.3648  16.3780
    16.3880  16.4102  16.4170  16.4266  16.4301  16.4434  16.4519  16.4556
    16.4568  16.4705  16.4749  16.4768  16.4949  16.5040  16.5090  16.5170
    16.5272  16.5272  16.5304  16.5506  16.5560  16.5607  16.5638  16.5706
    16.6248  16.6416  16.6473  16.6522  16.6587  16.6853  16.6865  16.6937
    16.7101  16.7102  16.7324  16.7359  16.7839  16.7927  16.7970  16.8027
    16.8288  16.8452  16.8705  16.8809  16.8923  16.9311  16.9965  17.0381
    17.0511  17.0535  17.0691  17.0846  17.0944  17.1213  17.1217  17.1565
    17.1588  17.1646  17.1849  17.1932  17.2003  17.2086  17.3125  17.3412
    17.3688  17.3768  17.4651  17.4652  17.4802  17.5164  17.6069  18.0772
    18.0843  18.1465  18.1491  18.2275  18.2663  18.4090  18.6042  18.6195
    19.1859  19.1934  19.2376  19.2434  19.4831  19.4901  19.4935  19.4974
    20.5843  20.5850

          k =-0.3333-0.3333 0.0000 ( 21886 PWs)   bands (ev):

   -86.9195 -86.9185 -86.8346 -71.0348 -71.0080 -71.0078 -70.9071 -70.9017
   -70.9014 -70.9011 -70.8988 -70.8973 -70.8973 -70.8950 -70.8747 -70.8708
   -70.8574 -70.8540 -70.8527 -70.8489 -70.7722 -70.7606 -70.7570 -70.7553
   -70.7498 -70.7493 -70.7449 -70.7411 -70.7401 -70.7382 -70.7340 -70.7339
   -70.7299 -70.7243 -70.7233 -70.7220 -70.7203 -70.7190 -70.7179 -70.7166
   -70.7163 -70.7157 -70.7145 -70.7132 -70.7055 -70.7015 -70.7014 -70.6987
   -70.6979 -70.6974 -70.6900 -70.6898 -70.6834 -70.6627 -47.1078 -47.1027
   -47.0996 -47.0995 -47.0940 -47.0859 -47.0279 -46.9934 -46.9749 -37.1107
   -37.0982 -37.0942 -37.0564 -37.0303 -37.0298 -37.0246 -37.0143 -37.0086
   -37.0082 -37.0040 -37.0027 -36.9989 -36.9897 -36.9881 -36.9831 -36.9781
   -36.9755 -36.9732 -36.9702 -36.9645 -36.9592 -36.9552 -36.9542 -36.9523
   -36.9511 -36.9431 -36.9369 -36.9320 -36.9296 -36.9293 -36.9222 -36.9167
   -36.9121 -36.9109 -36.9080 -36.9036 -36.8973 -36.8906 -36.8883 -36.8838
   -36.8806 -36.8759 -36.8705 -36.8652 -36.8647 -36.8613 -36.8546 -36.8531
   -36.8452 -36.8452 -36.8450 -36.8390 -36.8328 -36.8310 -36.8299 -36.8221
   -36.8200 -36.8180 -36.8107 -36.8105 -36.8078 -36.8039 -36.8030 -36.8021
   -36.8010 -36.7960 -36.7925 -36.7906 -36.7895 -36.7841 -36.7787 -36.7776
   -36.7702 -36.7702 -36.7665 -36.7659 -36.7603 -36.7564 -36.7523 -36.7521
   -36.7478 -36.7434 -36.7399 -36.7358 -36.7349 -36.7327 -36.7283 -36.7252
   -36.7207 -36.7193 -36.7190 -36.7189 -36.7144 -36.7131 -36.7121 -36.7057
   -36.7038 -36.7019 -36.6992 -36.6968 -36.6960 -36.6956 -36.6933 -36.6796
   -36.6794 -36.6789 -36.6788 -36.6771 -36.6749 -36.6745 -36.6720 -36.6635
   -36.6624 -36.6500 -36.6479 -36.6477 -36.6442 -36.6435 -36.6432 -36.6418
   -36.6387 -36.6319 -36.6306 -36.6249 -36.6246 -36.6237 -36.6236 -36.6201
   -36.6194 -36.6176 -36.6160 -36.6116 -36.6106 -36.6090 -36.6085 -36.6078
   -36.6077 -36.6041 -36.6036 -36.6010 -36.5977 -36.5973 -36.5959 -36.5947
   -36.5927 -36.5926 -36.5911 -36.5892 -36.5873 -36.5836 -36.5790 -36.5753
     9.5984  10.2630  10.3393  10.9380  11.5159  11.5289  11.9701  11.9846
    12.0481  12.0490  12.4050  12.4951  12.5388  12.5423  12.6143  12.6415
    12.6427  12.7247  12.8027  12.8169  12.8457  12.8466  12.9643  12.9939
    13.0518  13.0629  13.0666  13.0715  13.1170  13.1506  13.1995  13.2275
    13.2321  13.2466  13.2746  13.2881  13.2938  13.2957  13.3006  13.3079
    13.3207  13.4489  13.4504  13.4514  13.4569  13.4645  13.4786  13.5000
    13.5112  13.5333  13.5365  13.6228  13.7016  13.7100  13.7250  13.7261
    13.7871  13.8118  13.9127  13.9175  13.9365  13.9501  14.0079  14.0107
    14.0344  14.0368  14.0521  14.0533  14.0593  14.0773  14.1028  14.1198
    14.1243  14.1271  14.1512  14.1551  14.1619  14.1841  14.1893  14.1962
    14.1973  14.2040  14.2175  14.2218  14.2537  14.2564  14.3057  14.3087
    14.3242  14.3322  14.3644  14.3656  14.4285  14.4319  14.4987  14.5144
    14.5233  14.5274  14.5348  14.5403  14.5427  14.5663  14.5758  14.6291
    14.6444  14.6487  14.6886  14.7019  14.7122  14.7421  14.7424  14.7482
    14.7497  14.7621  14.7665  14.7908  14.7989  14.8039  14.8142  14.8351
    14.8371  14.8504  14.8630  14.8665  14.8745  14.8849  14.8897  14.8931
    14.9053  14.9057  14.9138  14.9138  14.9221  14.9225  14.9303  14.9327
    14.9462  14.9502  14.9604  15.0232  15.0531  15.0553  15.0652  15.1141
    15.1334  15.1485  15.2001  15.2023  15.2354  15.3367  15.3462  15.3557
    15.3751  15.3903  15.3977  15.4468  15.4520  15.5470  15.5643  15.6371
    15.6474  15.6558  15.6740  15.6797  15.6951  15.7601  15.7789  15.8466
    15.8563  15.9159  15.9415  15.9583  15.9816  15.9880  15.9960  16.0052
    16.0304  16.0655  16.0778  16.0795  16.0922  16.0980  16.1033  16.1170
    16.1293  16.1467  16.1468  16.1560  16.1819  16.1904  16.2030  16.2082
    16.2183  16.2267  16.2323  16.2371  16.2443  16.2470  16.2537  16.2717
    16.2842  16.2926  16.2956  16.2965  16.3075  16.3126  16.3223  16.3259
    16.3281  16.3316  16.3427  16.3512  16.3553  16.3745  16.3753  16.3793
    16.3884  16.4134  16.4145  16.4266  16.4284  16.4331  16.4413  16.4529
    16.4584  16.4615  16.4738  16.4811  16.4973  16.5096  16.5172  16.5190
    16.5245  16.5296  16.5395  16.5485  16.5487  16.5568  16.5578  16.5729
    16.6109  16.6243  16.6327  16.6621  16.6625  16.6644  16.6805  16.6864
    16.7075  16.7275  16.7361  16.7368  16.7609  16.7728  16.7923  16.7939
    16.8264  16.8626  16.8644  16.8825  16.8896  16.9182  17.0005  17.0376
    17.0482  17.0736  17.0755  17.0993  17.1015  17.1144  17.1166  17.1531
    17.1674  17.1775  17.1821  17.1933  17.2069  17.2139  17.2873  17.3651
    17.3783  17.3963  17.4516  17.4701  17.4751  17.5216  17.5915  18.0650
    18.0699  18.1686  18.1699  18.2217  18.2728  18.4082  18.5997  18.6238
    19.2018  19.2143  19.2221  19.2319  19.4767  19.4805  19.4833  19.4923
    20.5839  20.5854

          k = 0.3333-0.3333 0.3333 ( 21842 PWs)   bands (ev):

   -86.9195 -86.9185 -86.8346 -71.0348 -71.0080 -71.0078 -70.9071 -70.9015
   -70.9012 -70.9009 -70.8995 -70.8973 -70.8966 -70.8955 -70.8742 -70.8713
   -70.8573 -70.8541 -70.8519 -70.8495 -70.7700 -70.7630 -70.7589 -70.7561
   -70.7531 -70.7446 -70.7425 -70.7413 -70.7402 -70.7376 -70.7340 -70.7333
   -70.7285 -70.7233 -70.7229 -70.7224 -70.7221 -70.7208 -70.7179 -70.7167
   -70.7163 -70.7152 -70.7141 -70.7135 -70.7068 -70.7042 -70.7040 -70.6978
   -70.6945 -70.6930 -70.6912 -70.6901 -70.6845 -70.6627 -47.1114 -47.0976
   -47.0951 -47.0944 -47.0907 -47.0848 -47.0242 -46.9900 -46.9726 -37.1105
   -37.0975 -37.0939 -37.0584 -37.0353 -37.0334 -37.0254 -37.0100 -37.0085
   -37.0041 -37.0034 -37.0010 -36.9965 -36.9932 -36.9881 -36.9832 -36.9810
   -36.9774 -36.9681 -36.9665 -36.9618 -36.9604 -36.9561 -36.9551 -36.9471
   -36.9445 -36.9393 -36.9355 -36.9345 -36.9285 -36.9260 -36.9216 -36.9209
   -36.9153 -36.9130 -36.9109 -36.9070 -36.9020 -36.8978 -36.8947 -36.8836
   -36.8779 -36.8692 -36.8652 -36.8618 -36.8583 -36.8572 -36.8559 -36.8504
   -36.8485 -36.8470 -36.8422 -36.8400 -36.8374 -36.8356 -36.8307 -36.8281
   -36.8231 -36.8188 -36.8147 -36.8096 -36.8081 -36.8019 -36.8003 -36.7963
   -36.7944 -36.7929 -36.7902 -36.7871 -36.7840 -36.7800 -36.7747 -36.7698
   -36.7686 -36.7666 -36.7662 -36.7602 -36.7564 -36.7548 -36.7522 -36.7496
   -36.7443 -36.7440 -36.7418 -36.7368 -36.7319 -36.7309 -36.7296 -36.7288
   -36.7264 -36.7233 -36.7195 -36.7161 -36.7153 -36.7126 -36.7118 -36.7086
   -36.7060 -36.7038 -36.7001 -36.6993 -36.6974 -36.6945 -36.6931 -36.6915
   -36.6891 -36.6847 -36.6834 -36.6773 -36.6760 -36.6664 -36.6628 -36.6592
   -36.6576 -36.6513 -36.6483 -36.6441 -36.6428 -36.6406 -36.6367 -36.6355
   -36.6347 -36.6321 -36.6279 -36.6250 -36.6248 -36.6218 -36.6200 -36.6184
   -36.6175 -36.6144 -36.6141 -36.6113 -36.6107 -36.6089 -36.6081 -36.6059
   -36.6040 -36.6030 -36.6026 -36.6009 -36.5998 -36.5995 -36.5976 -36.5952
   -36.5941 -36.5912 -36.5887 -36.5872 -36.5861 -36.5855 -36.5824 -36.5818
     9.8359  10.4837  10.5347  10.5527  11.1189  11.1615  11.1791  11.7571
    12.5264  12.5797  12.6019  12.7506  12.7656  12.7786  12.8070  12.8108
    12.8142  12.8162  12.8206  12.8244  12.8750  12.8825  12.8857  13.0671
    13.0690  13.1444  13.1682  13.1724  13.2256  13.2420  13.2476  13.2601
    13.2661  13.2723  13.2851  13.2921  13.2985  13.3071  13.3094  13.3157
    13.3219  13.3273  13.3316  13.3393  13.3429  13.3453  13.3479  13.3532
    13.3563  13.4567  13.4597  13.4641  13.5611  13.5728  13.5770  13.6597
    13.6676  13.6853  13.8108  13.8135  13.9379  13.9928  14.0094  14.0232
    14.0293  14.0356  14.0526  14.0699  14.0831  14.0895  14.0981  14.1106
    14.1188  14.1252  14.1342  14.1410  14.1481  14.1521  14.1550  14.1581
    14.1670  14.2268  14.2369  14.2431  14.2920  14.2957  14.2968  14.3195
    14.3246  14.3320  14.3520  14.3554  14.3792  14.3901  14.4020  14.4144
    14.4300  14.4456  14.4534  14.4747  14.4848  14.5137  14.5256  14.5500
    14.6071  14.6155  14.6258  14.6358  14.6507  14.6821  14.7181  14.7267
    14.7502  14.7609  14.7818  14.7833  14.7920  14.7954  14.8035  14.8268
    14.8330  14.8385  14.8441  14.8486  14.8568  14.8590  14.8654  14.8680
    14.8742  14.8779  14.8782  14.8915  14.9010  14.9061  14.9210  14.9566
    14.9637  15.0025  15.0193  15.0239  15.1119  15.1745  15.1854  15.2546
    15.2590  15.2729  15.3263  15.3370  15.3491  15.3784  15.3865  15.3982
    15.5432  15.5927  15.6192  15.6834  15.6873  15.7133  15.7252  15.7520
    15.7864  15.8008  15.8056  15.8109  15.8195  15.8366  15.8474  15.8668
    15.8717  15.8838  15.8939  15.9254  15.9430  15.9540  15.9669  16.0029
    16.0156  16.0220  16.0272  16.0448  16.0624  16.0666  16.0790  16.0949
    16.1085  16.1246  16.1336  16.1522  16.1631  16.1682  16.1828  16.1924
    16.1995  16.2102  16.2250  16.2307  16.2417  16.2497  16.2608  16.2744
    16.2866  16.2936  16.2975  16.3062  16.3112  16.3220  16.3307  16.3441
    16.3532  16.3581  16.3634  16.3647  16.3789  16.3879  16.3952  16.3994
    16.4058  16.4087  16.4142  16.4249  16.4342  16.4365  16.4446  16.4534
    16.4574  16.4760  16.4772  16.4894  16.5024  16.5049  16.5127  16.5199
    16.5336  16.5533  16.5570  16.5631  16.5672  16.5685  16.5830  16.5941
    16.5986  16.6125  16.6239  16.6333  16.6449  16.6803  16.6941  16.7119
    16.7233  16.7339  16.7400  16.7456  16.7517  16.7790  16.7887  16.7988
    16.8079  16.8169  16.8338  16.8340  16.8649  16.9279  16.9416  16.9455
    16.9503  16.9666  16.9705  16.9984  17.0010  17.0062  17.1635  17.1686
    17.1891  17.2016  17.2224  17.2280  17.2469  17.2628  17.2686  17.2772
    17.2820  17.5613  17.5744  17.5833  17.6142  17.6205  17.6423  18.3469
    18.3571  18.3777  18.4838  18.4889  18.5078  18.6672  18.7461  18.7672
    18.9905  19.0062  19.0112  19.0407  19.0460  19.0677  19.3676  19.3776
    19.4216  19.7899

 ------ SPIN DOWN ----------


          k = 0.0000 0.0000 0.0000 ( 21879 PWs)   bands (ev):

   -85.5638 -85.5628 -85.5078 -67.6827 -67.6706 -67.6693 -67.6567 -67.6430
   -67.6419 -67.6410 -67.6349 -67.6346 -67.6344 -67.6286 -67.6265 -67.6265
   -67.6174 -67.6166 -67.6111 -67.6047 -67.6047 -67.6037 -67.6009 -67.5997
   -67.5899 -67.5890 -67.5875 -67.5874 -67.5855 -67.5844 -67.5844 -67.5839
   -67.5786 -67.5763 -67.5761 -67.5750 -67.5710 -67.5677 -67.5665 -67.5662
   -67.5651 -67.5643 -67.5641 -67.5641 -67.5622 -67.5559 -67.5551 -67.5521
   -67.5494 -67.5449 -67.5425 -67.5350 -67.5343 -67.5141 -45.7655 -45.7550
   -45.7446 -45.7434 -45.7421 -45.7376 -45.6927 -45.6645 -45.6452 -33.9178
   -33.9163 -33.9135 -33.9126 -33.9121 -33.9086 -33.9016 -33.8977 -33.8920
   -33.8913 -33.8910 -33.8855 -33.8631 -33.8627 -33.8577 -33.8536 -33.8456
   -33.8416 -33.8406 -33.8377 -33.8365 -33.8344 -33.8343 -33.8343 -33.8339
   -33.8321 -33.8317 -33.8299 -33.8289 -33.8236 -33.8225 -33.8202 -33.8168
   -33.8153 -33.8150 -33.8149 -33.8107 -33.8099 -33.8081 -33.8074 -33.8071
   -33.8053 -33.8050 -33.8046 -33.8043 -33.8016 -33.7972 -33.7959 -33.7959
   -33.7924 -33.7880 -33.7802 -33.7772 -33.7737 -33.7711 -33.7705 -33.7604
   -33.7534 -33.7479 -33.7469 -33.7452 -33.7333 -33.7332 -33.7304 -33.7290
   -33.7279 -33.7262 -33.7170 -33.7156 -33.7150 -33.7127 -33.7008 -33.6995
   -33.6982 -33.6935 -33.6912 -33.6864 -33.6830 -33.6829 -33.6619 -33.6503
   -33.6430 -33.6413 -33.6407 -33.6383 -33.6377 -33.6317 -33.6307 -33.6298
   -33.6290 -33.6280 -33.6266 -33.6260 -33.6239 -33.6226 -33.6217 -33.6210
   -33.6202 -33.6202 -33.6176 -33.6167 -33.6166 -33.6164 -33.6111 -33.6107
   -33.6099 -33.6067 -33.6041 -33.6038 -33.6023 -33.6005 -33.6004 -33.5984
   -33.5981 -33.5964 -33.5955 -33.5950 -33.5948 -33.5947 -33.5944 -33.5906
   -33.5900 -33.5896 -33.5874 -33.5851 -33.5846 -33.5829 -33.5825 -33.5812
   -33.5789 -33.5664 -33.5647 -33.5614 -33.5606 -33.5599 -33.5590 -33.5551
   -33.5524 -33.5163 -33.5161 -33.5152 -33.5140 -33.5136 -33.5124 -33.5110
   -33.5105 -33.5101 -33.5101 -33.5100 -33.5091 -33.5074 -33.5057 -33.5033
     9.2620  11.2331  11.3572  11.3625  11.4061  11.4192  11.4322  12.8163
    12.8233  12.8687  12.9453  12.9478  12.9551  12.9604  12.9666  12.9748
    12.9769  12.9802  12.9883  14.3875  14.4128  14.4130  14.4147  14.4567
    14.4604  14.4641  14.4733  14.4831  14.4888  14.6161  14.6444  14.6447
    14.6639  14.7051  14.7162  14.7690  14.7706  14.7722  14.7913  14.8032
    14.8113  14.8253  14.8290  14.8416  14.8489  14.8505  14.8576  15.1276
    15.2492  15.3499  15.3567  15.3751  15.5628  15.5913  15.6025  15.6183
    15.6392  15.6638  15.6793  15.6930  15.7526  15.7628  15.8156  15.8291
    15.8495  15.8509  15.8605  15.8655  15.8858  15.9001  15.9039  15.9973
    16.0050  16.0561  16.0666  16.0695  16.0938  16.1019  16.1059  16.1143
    16.1184  16.1224  16.1270  16.1271  16.1282  16.1289  16.1322  16.1331
    16.1345  16.1358  16.1364  16.1374  16.1387  16.3029  16.3150  16.3151
    16.3265  16.3270  16.3543  16.3651  16.3877  16.3954  16.4055  16.4304
    16.4402  16.4417  16.4428  16.4538  16.4617  16.4715  16.4794  16.4929
    16.5547  16.5563  16.5564  16.5573  16.5576  16.6919  16.7305  16.7730
    16.8132  16.8148  16.8326  16.8342  16.8470  16.8579  16.8767  16.9249
    16.9318  16.9321  16.9325  16.9373  16.9376  16.9698  16.9732  16.9749
    16.9874  16.9883  16.9973  17.0072  17.0307  17.1814  17.1859  17.2935
    17.3836  17.4002  17.4067  17.4628  17.4673  17.5119  17.5462  17.5465
    17.5484  17.5519  17.5537  17.5735  17.5744  17.5758  17.6392  17.7825
    17.8559  17.9760  17.9984  18.0120  18.0198  18.0519  18.0734  18.1015
    18.1189  18.1951  18.2467  18.2654  18.2677  18.2788  18.3694  18.4102
    18.4454  18.4502  18.5001  18.5044  18.5068  18.5112  18.5419  18.5422
    18.5440  18.5483  18.6128  18.6438  18.6456  18.6467  18.6629  18.6651
    18.7179  18.7228  18.7954  18.8515  18.8949  18.9288  18.9693  19.0362
    19.0587  19.1053  19.1113  19.1605  19.1801  19.1857  19.1920  19.2338
    19.2429  19.2459  19.2503  19.2525  19.2620  19.3166  19.3521  19.3606
    19.3988  19.4093  19.4433  19.4489  19.4633  19.4653  19.4719  19.4822
    19.4828  19.4846  19.4867  19.4925  19.4952  19.5104  19.5110  19.5142
    19.5252  19.5265  19.5267  19.5268  19.5290  19.5307  19.5365  19.5366
    19.5372  19.5391  19.5422  19.5444  19.5457  19.5489  19.5490  19.5509
    19.5522  19.5544  19.5581  19.5631  19.5702  19.5707  19.5722  19.5823
    19.5839  19.5912  19.5919  19.5969  19.5977  19.5993  19.6028  19.6030
    19.6032  19.6064  19.6132  19.6211  19.8293  19.8379  19.8426  19.8522
    19.8528  19.8701  20.0318  20.0330  20.0429  20.1871  20.2088  20.2376
    20.2483  20.2605  20.2809  20.2960  20.3406  20.3406  20.3413  20.3415
    20.3442  21.2971  21.3134  21.3220  21.3367  21.3640  21.3742  21.4059
    21.4205  21.4783  21.5206  21.5461  21.5935  21.6122  21.6316  21.8195
    21.8316  21.8495

          k = 0.0000 0.0000 0.3333 ( 21891 PWs)   bands (ev):

   -85.5638 -85.5628 -85.5078 -67.6821 -67.6697 -67.6692 -67.6593 -67.6451
   -67.6423 -67.6415 -67.6353 -67.6335 -67.6324 -67.6298 -67.6250 -67.6229
   -67.6184 -67.6159 -67.6149 -67.6075 -67.6039 -67.6027 -67.5996 -67.5989
   -67.5911 -67.5886 -67.5876 -67.5863 -67.5851 -67.5841 -67.5819 -67.5802
   -67.5790 -67.5759 -67.5756 -67.5749 -67.5732 -67.5721 -67.5706 -67.5696
   -67.5658 -67.5632 -67.5620 -67.5610 -67.5599 -67.5588 -67.5552 -67.5527
   -67.5471 -67.5449 -67.5441 -67.5355 -67.5314 -67.5147 -45.7634 -45.7499
   -45.7445 -45.7428 -45.7411 -45.7388 -45.6944 -45.6685 -45.6540 -33.9169
   -33.9124 -33.9100 -33.9047 -33.9003 -33.8938 -33.8916 -33.8876 -33.8872
   -33.8814 -33.8805 -33.8790 -33.8725 -33.8714 -33.8702 -33.8678 -33.8632
   -33.8589 -33.8569 -33.8539 -33.8532 -33.8474 -33.8465 -33.8451 -33.8449
   -33.8423 -33.8409 -33.8376 -33.8354 -33.8336 -33.8324 -33.8322 -33.8254
   -33.8252 -33.8230 -33.8221 -33.8203 -33.8132 -33.8096 -33.8067 -33.7983
   -33.7923 -33.7920 -33.7830 -33.7802 -33.7800 -33.7715 -33.7627 -33.7614
   -33.7603 -33.7588 -33.7534 -33.7520 -33.7512 -33.7486 -33.7460 -33.7440
   -33.7417 -33.7373 -33.7335 -33.7329 -33.7321 -33.7283 -33.7282 -33.7237
   -33.7214 -33.7199 -33.7117 -33.7094 -33.7092 -33.7074 -33.7031 -33.7027
   -33.6992 -33.6982 -33.6978 -33.6954 -33.6930 -33.6832 -33.6801 -33.6793
   -33.6727 -33.6706 -33.6694 -33.6676 -33.6642 -33.6627 -33.6605 -33.6547
   -33.6510 -33.6495 -33.6488 -33.6479 -33.6417 -33.6364 -33.6345 -33.6298
   -33.6296 -33.6276 -33.6274 -33.6209 -33.6188 -33.6153 -33.6141 -33.6131
   -33.6099 -33.6077 -33.6069 -33.6043 -33.6037 -33.5940 -33.5938 -33.5904
   -33.5893 -33.5869 -33.5862 -33.5856 -33.5852 -33.5779 -33.5752 -33.5744
   -33.5723 -33.5711 -33.5685 -33.5664 -33.5656 -33.5651 -33.5629 -33.5628
   -33.5602 -33.5577 -33.5566 -33.5565 -33.5547 -33.5543 -33.5516 -33.5497
   -33.5494 -33.5352 -33.5318 -33.5293 -33.5286 -33.5259 -33.5243 -33.5241
   -33.5225 -33.5198 -33.5171 -33.5157 -33.5155 -33.5142 -33.5118 -33.5084
     9.5038  10.2359  11.4718  11.5634  11.6084  11.6344  12.0679  12.1421
    12.1778  12.2025  12.7352  13.0977  13.1207  13.1625  13.1717  13.6317
    13.6692  13.7067  13.7082  13.7137  13.7340  13.7411  13.7480  14.0100
    14.2834  14.2843  14.3015  14.3043  14.5570  14.5600  14.7906  14.8403
    14.8479  14.8863  14.8882  14.8982  14.9249  14.9329  14.9443  14.9508
    14.9744  14.9948  15.0057  15.0251  15.0292  15.0744  15.0970  15.1012
    15.1716  15.2218  15.2544  15.2780  15.3387  15.3972  15.4129  15.4179
    15.5327  15.5896  15.5902  15.6099  15.6683  15.6825  15.7218  15.7414
    15.7691  15.8161  15.8375  15.8401  15.8480  15.8852  15.9420  15.9588
    16.0003  16.0062  16.0166  16.0227  16.0741  16.1038  16.1135  16.1378
    16.1757  16.1834  16.1846  16.2353  16.2560  16.2633  16.2686  16.2694
    16.2734  16.2761  16.2911  16.2950  16.3052  16.3109  16.3271  16.3289
    16.3368  16.3455  16.3526  16.3675  16.3704  16.4009  16.4026  16.4141
    16.4358  16.4498  16.4653  16.4685  16.4938  16.5285  16.5306  16.5461
    16.5479  16.5778  16.6186  16.6478  16.6593  16.7030  16.7134  16.7248
    16.7415  16.7715  16.7784  16.7932  16.8119  16.8271  16.8478  16.8877
    16.8977  16.9356  16.9608  16.9720  16.9978  17.0148  17.0318  17.0506
    17.0542  17.0735  17.1062  17.1395  17.1766  17.1839  17.1905  17.2373
    17.2400  17.2833  17.3193  17.3494  17.3797  17.3941  17.4032  17.4326
    17.4633  17.4742  17.5226  17.5915  17.5994  17.6145  17.7138  17.7376
    17.7888  17.8239  17.8346  17.8791  18.0093  18.0103  18.0535  18.0811
    18.1042  18.1233  18.1582  18.2303  18.3020  18.3493  18.4193  18.4423
    18.4541  18.4640  18.4753  18.4810  18.4828  18.4892  18.5039  18.5638
    18.5999  18.6130  18.7132  18.7137  18.7427  18.8346  18.8475  18.8697
    18.8821  18.8964  18.9211  18.9408  18.9515  18.9670  18.9924  18.9937
    19.0066  19.0342  19.0561  19.0580  19.0729  19.0834  19.1218  19.1219
    19.1497  19.1679  19.1816  19.1839  19.2010  19.2159  19.2184  19.2502
    19.2584  19.2969  19.3237  19.3355  19.3704  19.3732  19.3732  19.4137
    19.4374  19.4632  19.4643  19.4752  19.4826  19.5084  19.5106  19.5122
    19.5324  19.5544  19.5608  19.5708  19.5720  19.5833  19.5856  19.5921
    19.5953  19.5995  19.6212  19.6387  19.6398  19.6532  19.6551  19.6625
    19.6658  19.6676  19.6691  19.6746  19.6774  19.6778  19.6799  19.7135
    19.7227  19.7605  19.7610  19.7681  19.7691  19.7901  19.7968  19.8007
    19.8139  19.8268  19.8295  19.8530  19.8637  19.8665  19.8967  19.9052
    19.9150  19.9260  19.9683  20.0065  20.0090  20.0138  20.0168  20.0249
    20.0579  20.1206  20.1313  20.1406  20.1744  20.2046  20.2296  20.2318
    20.2628  20.3763  20.5308  20.5546  20.5894  20.6085  20.6141  20.6226
    20.6492  20.6624  21.7907  21.8012  21.8664  21.8709  22.1909  22.2455
    22.2459  22.2498

          k = 0.0000 0.3333 0.3333 ( 21886 PWs)   bands (ev):

   -85.5638 -85.5628 -85.5078 -67.6815 -67.6704 -67.6689 -67.6574 -67.6471
   -67.6438 -67.6413 -67.6372 -67.6338 -67.6332 -67.6304 -67.6232 -67.6217
   -67.6181 -67.6152 -67.6130 -67.6068 -67.6059 -67.6011 -67.5992 -67.5987
   -67.5921 -67.5894 -67.5883 -67.5867 -67.5841 -67.5823 -67.5819 -67.5789
   -67.5783 -67.5770 -67.5755 -67.5745 -67.5735 -67.5722 -67.5719 -67.5690
   -67.5679 -67.5647 -67.5629 -67.5616 -67.5597 -67.5581 -67.5544 -67.5522
   -67.5484 -67.5458 -67.5414 -67.5346 -67.5316 -67.5151 -45.7665 -45.7486
   -45.7453 -45.7424 -45.7412 -45.7395 -45.6932 -45.6673 -45.6517 -33.9283
   -33.9218 -33.9062 -33.8999 -33.8975 -33.8959 -33.8881 -33.8871 -33.8852
   -33.8804 -33.8789 -33.8752 -33.8742 -33.8724 -33.8711 -33.8698 -33.8680
   -33.8654 -33.8633 -33.8606 -33.8586 -33.8552 -33.8530 -33.8488 -33.8481
   -33.8431 -33.8400 -33.8382 -33.8347 -33.8322 -33.8302 -33.8286 -33.8262
   -33.8222 -33.8192 -33.8138 -33.8120 -33.8078 -33.8026 -33.8023 -33.7972
   -33.7925 -33.7870 -33.7852 -33.7806 -33.7779 -33.7766 -33.7721 -33.7683
   -33.7634 -33.7620 -33.7585 -33.7570 -33.7541 -33.7503 -33.7492 -33.7480
   -33.7442 -33.7405 -33.7376 -33.7351 -33.7326 -33.7280 -33.7245 -33.7215
   -33.7181 -33.7156 -33.7135 -33.7108 -33.7061 -33.7037 -33.7024 -33.6996
   -33.6947 -33.6909 -33.6890 -33.6852 -33.6829 -33.6809 -33.6781 -33.6758
   -33.6742 -33.6698 -33.6687 -33.6646 -33.6620 -33.6594 -33.6564 -33.6546
   -33.6525 -33.6508 -33.6489 -33.6468 -33.6449 -33.6401 -33.6377 -33.6342
   -33.6330 -33.6298 -33.6283 -33.6257 -33.6230 -33.6201 -33.6182 -33.6172
   -33.6151 -33.6112 -33.6087 -33.6064 -33.6048 -33.6029 -33.6006 -33.5986
   -33.5975 -33.5952 -33.5937 -33.5887 -33.5809 -33.5789 -33.5746 -33.5717
   -33.5703 -33.5662 -33.5656 -33.5614 -33.5603 -33.5582 -33.5567 -33.5560
   -33.5546 -33.5529 -33.5521 -33.5512 -33.5500 -33.5485 -33.5468 -33.5449
   -33.5432 -33.5357 -33.5322 -33.5313 -33.5296 -33.5284 -33.5263 -33.5243
   -33.5198 -33.5174 -33.5166 -33.5164 -33.5139 -33.5121 -33.5101 -33.5073
     9.7479  10.4381  10.4958  11.1408  11.7580  11.7921  12.3159  12.3453
    12.3710  12.3896  12.8680  12.9111  12.9393  12.9517  13.2785  13.3203
    13.8586  13.8744  13.8908  13.9020  13.9513  14.0603  14.1196  14.1858
    14.3000  14.3443  14.3729  14.3892  14.4002  14.4091  14.4815  14.4875
    14.4927  14.5203  14.6702  14.7544  14.8675  14.9105  14.9314  14.9367
    14.9791  15.0207  15.0324  15.0485  15.0841  15.1056  15.1225  15.1384
    15.1607  15.1941  15.2388  15.2834  15.3016  15.3310  15.3824  15.4387
    15.4470  15.4896  15.5075  15.5603  15.5958  15.6461  15.6579  15.7020
    15.7415  15.7506  15.8039  15.8291  15.8668  15.8796  15.9174  15.9374
    15.9462  15.9967  16.0331  16.0800  16.0988  16.1157  16.1251  16.1404
    16.1582  16.1790  16.1953  16.2302  16.2348  16.2585  16.2618  16.2907
    16.3087  16.3194  16.3262  16.3653  16.3771  16.3889  16.4050  16.4184
    16.4222  16.4410  16.4478  16.4594  16.4735  16.4821  16.4914  16.5010
    16.5196  16.5294  16.5381  16.5491  16.5779  16.5855  16.6088  16.6120
    16.6556  16.6677  16.6927  16.6974  16.7228  16.7370  16.7513  16.7751
    16.7860  16.7963  16.8053  16.8152  16.8203  16.8364  16.8423  16.8532
    16.8712  16.8882  16.9071  16.9361  16.9570  16.9672  16.9912  17.0123
    17.0287  17.0333  17.0411  17.0580  17.0801  17.0891  17.1061  17.1460
    17.1615  17.1992  17.2203  17.2647  17.2939  17.3368  17.3603  17.4169
    17.4450  17.5160  17.5483  17.5677  17.6136  17.6288  17.6761  17.6886
    17.7351  17.7555  17.8283  17.9543  17.9669  17.9929  18.0123  18.0815
    18.1272  18.1614  18.2218  18.2931  18.3629  18.3901  18.4315  18.5131
    18.5955  18.6035  18.6489  18.6714  18.6855  18.7034  18.7138  18.7308
    18.7521  18.7674  18.7821  18.7936  18.8210  18.8367  18.8473  18.8775
    18.8862  18.9156  18.9526  18.9714  18.9905  18.9976  19.0124  19.0275
    19.0340  19.0440  19.0746  19.0878  19.1121  19.1287  19.1337  19.1569
    19.1580  19.1725  19.1780  19.2010  19.2155  19.2300  19.2355  19.2508
    19.2677  19.2836  19.2872  19.2908  19.3070  19.3175  19.3234  19.3354
    19.3414  19.3445  19.3801  19.3898  19.4002  19.4170  19.4444  19.4631
    19.4739  19.4847  19.5018  19.5199  19.5356  19.5524  19.5678  19.5799
    19.5918  19.6016  19.6062  19.6196  19.6402  19.6447  19.6488  19.6547
    19.6577  19.6665  19.6705  19.6765  19.6807  19.6822  19.6894  19.6952
    19.7012  19.7055  19.7095  19.7140  19.7184  19.7240  19.7348  19.7496
    19.7572  19.7666  19.8207  19.8388  19.8563  19.8683  19.8790  19.8884
    19.9033  19.9072  19.9125  19.9253  19.9428  19.9499  19.9603  20.0203
    20.0319  20.0421  20.0577  20.0744  20.1230  20.1920  20.2499  20.3533
    20.4044  20.4272  20.4664  20.4744  20.5196  20.5354  20.7060  20.7190
    21.2146  21.2535  21.2651  21.2966  21.3416  21.3517  21.3614  21.3700
    22.1093  22.1702

          k = 0.3333 0.3333 0.3333 ( 21842 PWs)   bands (ev):

   -85.5638 -85.5627 -85.5078 -67.6811 -67.6706 -67.6689 -67.6557 -67.6468
   -67.6454 -67.6424 -67.6368 -67.6353 -67.6349 -67.6316 -67.6217 -67.6199
   -67.6181 -67.6159 -67.6111 -67.6066 -67.6040 -67.5999 -67.5998 -67.5983
   -67.5949 -67.5909 -67.5860 -67.5857 -67.5829 -67.5815 -67.5806 -67.5792
   -67.5788 -67.5780 -67.5752 -67.5739 -67.5735 -67.5726 -67.5717 -67.5702
   -67.5700 -67.5681 -67.5638 -67.5599 -67.5597 -67.5558 -67.5551 -67.5531
   -67.5489 -67.5458 -67.5397 -67.5340 -67.5318 -67.5154 -45.7644 -45.7466
   -45.7419 -45.7411 -45.7378 -45.7371 -45.6911 -45.6642 -45.6470 -33.9245
   -33.9169 -33.9169 -33.9108 -33.9091 -33.9055 -33.8885 -33.8877 -33.8829
   -33.8799 -33.8785 -33.8769 -33.8750 -33.8728 -33.8700 -33.8640 -33.8623
   -33.8588 -33.8577 -33.8565 -33.8537 -33.8534 -33.8480 -33.8478 -33.8452
   -33.8379 -33.8373 -33.8336 -33.8307 -33.8279 -33.8273 -33.8255 -33.8237
   -33.8228 -33.8207 -33.8175 -33.8148 -33.8148 -33.8065 -33.8049 -33.8013
   -33.7952 -33.7945 -33.7853 -33.7851 -33.7832 -33.7819 -33.7814 -33.7793
   -33.7748 -33.7745 -33.7690 -33.7586 -33.7545 -33.7497 -33.7411 -33.7323
   -33.7259 -33.7242 -33.7223 -33.7204 -33.7180 -33.7171 -33.7136 -33.7126
   -33.7115 -33.7112 -33.7088 -33.7072 -33.7016 -33.7006 -33.6988 -33.6968
   -33.6917 -33.6914 -33.6885 -33.6875 -33.6819 -33.6818 -33.6773 -33.6741
   -33.6716 -33.6693 -33.6684 -33.6647 -33.6623 -33.6619 -33.6588 -33.6579
   -33.6569 -33.6560 -33.6547 -33.6545 -33.6524 -33.6511 -33.6499 -33.6426
   -33.6419 -33.6384 -33.6368 -33.6359 -33.6340 -33.6328 -33.6285 -33.6242
   -33.6185 -33.6126 -33.6126 -33.6037 -33.5951 -33.5891 -33.5882 -33.5861
   -33.5822 -33.5798 -33.5793 -33.5779 -33.5769 -33.5732 -33.5697 -33.5682
   -33.5663 -33.5663 -33.5642 -33.5629 -33.5602 -33.5597 -33.5573 -33.5556
   -33.5539 -33.5536 -33.5518 -33.5516 -33.5474 -33.5468 -33.5433 -33.5428
   -33.5400 -33.5399 -33.5320 -33.5302 -33.5290 -33.5284 -33.5267 -33.5267
   -33.5245 -33.5202 -33.5199 -33.5169 -33.5160 -33.5143 -33.5123 -33.5078
     9.9873  10.6249  10.7190  10.7508  11.3068  11.3842  11.4098  12.0053
    12.9796  13.0730  13.1066  13.4001  13.4493  13.4987  13.5038  13.5179
    13.5303  13.9156  13.9625  13.9771  14.0930  14.1031  14.1191  14.1991
    14.2147  14.2200  14.3246  14.3439  14.3590  14.4367  14.4465  14.4544
    14.4954  14.5104  14.5361  14.6232  14.6508  14.6571  14.7689  14.7751
    14.8031  14.8114  14.8365  14.8503  14.8785  14.9093  15.1073  15.1174
    15.1695  15.2215  15.2689  15.2994  15.3443  15.3561  15.3686  15.3827
    15.4521  15.4867  15.5007  15.5140  15.5597  15.5726  15.5924  15.6548
    15.6766  15.7123  15.7507  15.8013  15.8845  15.9374  15.9608  15.9679
    15.9972  16.0149  16.0599  16.0810  16.0827  16.1100  16.1142  16.1356
    16.1539  16.1811  16.1901  16.2142  16.2266  16.2364  16.2466  16.2619
    16.2819  16.2822  16.3110  16.3327  16.3455  16.3563  16.3666  16.3873
    16.3930  16.4728  16.4997  16.5227  16.5334  16.5443  16.5624  16.5706
    16.5818  16.6363  16.6501  16.6602  16.6752  16.6965  16.7126  16.7172
    16.7325  16.7429  16.7646  16.7674  16.7730  16.7778  16.7942  16.8057
    16.8165  16.8266  16.8373  16.8385  16.8535  16.8559  16.8793  16.9086
    16.9160  16.9326  16.9537  16.9735  16.9791  16.9851  16.9902  17.0439
    17.0559  17.0777  17.1219  17.1459  17.1516  17.1618  17.1780  17.1875
    17.2372  17.2544  17.2812  17.2972  17.2987  17.3198  17.3471  17.3520
    17.3678  17.3913  17.4116  17.4219  17.4312  17.4637  17.6094  17.6561
    17.7220  17.7554  17.8502  17.9371  18.0007  18.0528  18.1028  18.1241
    18.1843  18.1997  18.2543  18.3246  18.3366  18.3642  18.3679  18.4245
    18.4596  18.4745  18.5529  18.6433  18.6515  18.7022  18.7179  18.7496
    18.7572  18.7811  18.8009  18.8062  18.8145  18.8530  18.8623  18.8931
    18.9014  18.9144  18.9568  18.9645  19.0032  19.0058  19.0508  19.0676
    19.0799  19.0852  19.1073  19.1088  19.1163  19.1430  19.1506  19.1671
    19.1727  19.1863  19.1971  19.2191  19.2399  19.2515  19.2660  19.2832
    19.2993  19.3020  19.3196  19.3410  19.3455  19.3560  19.3642  19.3879
    19.3885  19.4104  19.4160  19.4386  19.4423  19.4473  19.4569  19.4672
    19.4758  19.4784  19.4930  19.5010  19.5128  19.5282  19.5427  19.5451
    19.5815  19.5821  19.5894  19.6020  19.6293  19.6325  19.6437  19.6501
    19.6543  19.6597  19.6608  19.6718  19.6783  19.6823  19.6870  19.6918
    19.7003  19.7010  19.7093  19.7099  19.7182  19.7230  19.7260  19.7409
    19.7502  19.7612  19.7731  19.7789  19.7809  19.8033  19.8485  19.8518
    19.8983  19.9241  19.9327  19.9602  19.9684  19.9752  19.9972  20.0049
    20.0171  20.1039  20.1091  20.1275  20.1468  20.1568  20.1646  20.6018
    20.6029  20.6667  20.6674  20.7004  20.7173  20.7364  20.8015  20.8338
    21.0217  21.0310  21.0625  21.0945  21.1066  21.1105  21.1145  21.1357
    21.1865  21.6596

          k = 0.3333 0.0000 0.0000 ( 21891 PWs)   bands (ev):

   -85.5638 -85.5628 -85.5078 -67.6819 -67.6710 -67.6694 -67.6555 -67.6475
   -67.6411 -67.6408 -67.6359 -67.6354 -67.6342 -67.6291 -67.6261 -67.6237
   -67.6169 -67.6164 -67.6102 -67.6072 -67.6039 -67.6019 -67.6006 -67.5985
   -67.5902 -67.5901 -67.5880 -67.5879 -67.5869 -67.5842 -67.5832 -67.5810
   -67.5800 -67.5767 -67.5755 -67.5736 -67.5727 -67.5686 -67.5682 -67.5664
   -67.5653 -67.5648 -67.5643 -67.5623 -67.5606 -67.5581 -67.5561 -67.5522
   -67.5498 -67.5446 -67.5405 -67.5342 -67.5341 -67.5145 -45.7628 -45.7502
   -45.7452 -45.7417 -45.7416 -45.7396 -45.6930 -45.6694 -45.6538 -33.9155
   -33.9134 -33.9090 -33.9053 -33.8963 -33.8951 -33.8919 -33.8865 -33.8850
   -33.8823 -33.8814 -33.8774 -33.8759 -33.8756 -33.8709 -33.8682 -33.8611
   -33.8590 -33.8566 -33.8552 -33.8519 -33.8504 -33.8476 -33.8461 -33.8451
   -33.8420 -33.8399 -33.8383 -33.8381 -33.8333 -33.8313 -33.8296 -33.8283
   -33.8235 -33.8228 -33.8205 -33.8198 -33.8121 -33.8088 -33.8076 -33.7974
   -33.7949 -33.7907 -33.7885 -33.7735 -33.7720 -33.7701 -33.7691 -33.7614
   -33.7602 -33.7564 -33.7558 -33.7524 -33.7478 -33.7468 -33.7453 -33.7434
   -33.7414 -33.7402 -33.7368 -33.7350 -33.7303 -33.7294 -33.7288 -33.7253
   -33.7198 -33.7164 -33.7155 -33.7129 -33.7119 -33.7088 -33.7042 -33.7036
   -33.7031 -33.7000 -33.6903 -33.6888 -33.6854 -33.6836 -33.6806 -33.6790
   -33.6763 -33.6718 -33.6704 -33.6703 -33.6670 -33.6610 -33.6576 -33.6556
   -33.6545 -33.6492 -33.6448 -33.6422 -33.6398 -33.6376 -33.6360 -33.6338
   -33.6319 -33.6292 -33.6271 -33.6256 -33.6224 -33.6183 -33.6174 -33.6124
   -33.6064 -33.6042 -33.6029 -33.5987 -33.5968 -33.5946 -33.5936 -33.5915
   -33.5906 -33.5893 -33.5861 -33.5824 -33.5806 -33.5762 -33.5745 -33.5723
   -33.5722 -33.5705 -33.5692 -33.5687 -33.5653 -33.5642 -33.5638 -33.5624
   -33.5616 -33.5608 -33.5587 -33.5571 -33.5559 -33.5538 -33.5534 -33.5523
   -33.5510 -33.5359 -33.5310 -33.5309 -33.5270 -33.5256 -33.5247 -33.5223
   -33.5216 -33.5213 -33.5177 -33.5167 -33.5142 -33.5127 -33.5121 -33.5076
     9.5026  10.2384  11.4996  11.5609  11.5823  11.6225  12.1048  12.1438
    12.1590  12.1921  12.7411  13.0976  13.1200  13.1552  13.1629  13.6651
    13.6763  13.6854  13.7178  13.7200  13.7209  13.7392  13.7455  14.0133
    14.2754  14.2867  14.2926  14.3003  14.5822  14.6162  14.7523  14.7932
    14.8395  14.8628  14.9009  14.9102  14.9103  14.9325  14.9481  14.9500
    14.9683  14.9792  15.0020  15.0124  15.0523  15.0600  15.0894  15.1546
    15.1921  15.2219  15.2521  15.2680  15.3359  15.3782  15.3814  15.4061
    15.5829  15.6088  15.6256  15.6381  15.6981  15.7052  15.7317  15.7331
    15.7456  15.7676  15.8258  15.8415  15.8488  15.9076  15.9178  15.9622
    15.9623  15.9892  16.0008  16.0681  16.0756  16.0861  16.1121  16.1517
    16.1596  16.1864  16.1914  16.2027  16.2223  16.2473  16.2571  16.2603
    16.2789  16.2815  16.2993  16.3136  16.3247  16.3293  16.3324  16.3439
    16.3474  16.3492  16.3728  16.3787  16.3899  16.3977  16.4017  16.4108
    16.4188  16.4483  16.4494  16.4659  16.4830  16.5101  16.5164  16.5320
    16.5686  16.6448  16.6581  16.6694  16.6711  16.7006  16.7029  16.7226
    16.7231  16.7500  16.7615  16.7784  16.8096  16.8216  16.8458  16.8916
    16.8937  16.9222  16.9430  16.9452  16.9858  17.0170  17.0266  17.0532
    17.0650  17.0925  17.1266  17.1343  17.1575  17.1789  17.1993  17.2012
    17.2431  17.2802  17.2875  17.3427  17.3758  17.3765  17.3917  17.4511
    17.4829  17.4852  17.5226  17.6069  17.6095  17.6555  17.7029  17.7275
    17.7801  17.8120  17.8430  17.9387  17.9737  18.0057  18.0667  18.0743
    18.0921  18.1749  18.2444  18.2517  18.3333  18.3416  18.3609  18.3664
    18.4323  18.4525  18.4727  18.4771  18.4948  18.5161  18.5232  18.5599
    18.5932  18.6444  18.6799  18.7040  18.7652  18.8396  18.8494  18.8907
    18.8912  18.9189  18.9191  18.9366  18.9387  18.9558  18.9566  18.9786
    19.0044  19.0105  19.0403  19.0439  19.0779  19.1008  19.1265  19.1470
    19.1513  19.1723  19.1844  19.1861  19.1948  19.2085  19.2089  19.2462
    19.2805  19.2921  19.3135  19.3195  19.3714  19.3723  19.3984  19.4144
    19.4457  19.4594  19.4686  19.4797  19.4899  19.5041  19.5255  19.5289
    19.5367  19.5404  19.5578  19.5605  19.5743  19.5850  19.5896  19.5936
    19.5982  19.6048  19.6202  19.6313  19.6437  19.6476  19.6553  19.6575
    19.6610  19.6637  19.6660  19.6728  19.6763  19.6837  19.6962  19.7003
    19.7426  19.7584  19.7585  19.7686  19.7743  19.7925  19.7952  19.8036
    19.8057  19.8130  19.8192  19.8240  19.8529  19.8694  19.8775  19.9161
    19.9338  19.9361  19.9589  19.9973  20.0064  20.0137  20.0159  20.0293
    20.0507  20.1406  20.1430  20.1516  20.1648  20.2163  20.2199  20.2437
    20.2582  20.3849  20.5459  20.5558  20.5808  20.5895  20.6162  20.6218
    20.6292  20.6548  21.7892  21.8204  21.8267  21.8713  22.2174  22.2409
    22.2464  22.2488

          k = 0.3333-0.3333 0.0000 ( 21886 PWs)   bands (ev):

   -85.5638 -85.5628 -85.5078 -67.6814 -67.6715 -67.6690 -67.6542 -67.6480
   -67.6441 -67.6399 -67.6378 -67.6356 -67.6353 -67.6299 -67.6246 -67.6210
   -67.6172 -67.6161 -67.6094 -67.6069 -67.6041 -67.6014 -67.5997 -67.5972
   -67.5906 -67.5904 -67.5893 -67.5889 -67.5870 -67.5829 -67.5824 -67.5797
   -67.5783 -67.5775 -67.5754 -67.5750 -67.5733 -67.5706 -67.5683 -67.5676
   -67.5659 -67.5657 -67.5646 -67.5608 -67.5598 -67.5577 -67.5562 -67.5535
   -67.5502 -67.5448 -67.5384 -67.5342 -67.5337 -67.5150 -45.7631 -45.7516
   -45.7451 -45.7431 -45.7430 -45.7389 -45.6929 -45.6668 -45.6512 -33.9291
   -33.9209 -33.9043 -33.9018 -33.8973 -33.8954 -33.8859 -33.8833 -33.8826
   -33.8825 -33.8785 -33.8780 -33.8745 -33.8722 -33.8718 -33.8702 -33.8685
   -33.8654 -33.8645 -33.8634 -33.8613 -33.8612 -33.8527 -33.8466 -33.8458
   -33.8416 -33.8401 -33.8395 -33.8341 -33.8327 -33.8306 -33.8255 -33.8230
   -33.8222 -33.8159 -33.8148 -33.8107 -33.8069 -33.8065 -33.8011 -33.7977
   -33.7887 -33.7885 -33.7842 -33.7833 -33.7792 -33.7757 -33.7689 -33.7685
   -33.7641 -33.7610 -33.7606 -33.7551 -33.7537 -33.7530 -33.7510 -33.7481
   -33.7438 -33.7425 -33.7375 -33.7354 -33.7353 -33.7292 -33.7272 -33.7224
   -33.7193 -33.7158 -33.7158 -33.7106 -33.7053 -33.7022 -33.7021 -33.6974
   -33.6947 -33.6898 -33.6873 -33.6866 -33.6837 -33.6816 -33.6816 -33.6772
   -33.6736 -33.6671 -33.6661 -33.6621 -33.6619 -33.6554 -33.6530 -33.6524
   -33.6514 -33.6504 -33.6489 -33.6485 -33.6449 -33.6403 -33.6345 -33.6320
   -33.6320 -33.6314 -33.6302 -33.6270 -33.6242 -33.6219 -33.6157 -33.6155
   -33.6143 -33.6110 -33.6093 -33.6077 -33.6058 -33.6050 -33.6024 -33.6001
   -33.5996 -33.5937 -33.5923 -33.5895 -33.5813 -33.5798 -33.5761 -33.5704
   -33.5704 -33.5677 -33.5629 -33.5615 -33.5606 -33.5600 -33.5558 -33.5548
   -33.5541 -33.5528 -33.5527 -33.5513 -33.5496 -33.5494 -33.5467 -33.5463
   -33.5451 -33.5354 -33.5329 -33.5312 -33.5302 -33.5290 -33.5257 -33.5222
   -33.5198 -33.5169 -33.5154 -33.5144 -33.5133 -33.5131 -33.5129 -33.5059
     9.7461  10.4402  10.4975  11.1448  11.7630  11.7776  12.3124  12.3370
    12.3737  12.3937  12.8678  12.9209  12.9391  12.9516  13.2766  13.3228
    13.8647  13.8693  13.8969  13.9038  13.9487  14.0552  14.1185  14.1953
    14.3121  14.3515  14.3867  14.3963  14.3991  14.4060  14.4668  14.4775
    14.4891  14.4906  14.6909  14.7810  14.8404  14.8841  14.9112  14.9320
    14.9368  15.0244  15.0520  15.0577  15.1072  15.1291  15.1312  15.1373
    15.1390  15.2094  15.2305  15.2708  15.2966  15.3583  15.3636  15.4549
    15.4622  15.4823  15.5135  15.5634  15.5853  15.6452  15.6754  15.7144
    15.7219  15.7607  15.8096  15.8174  15.8621  15.9042  15.9235  15.9304
    15.9495  15.9538  16.0345  16.0758  16.0896  16.0954  16.1132  16.1500
    16.1532  16.1832  16.2053  16.2459  16.2605  16.2751  16.2893  16.2944
    16.3084  16.3207  16.3345  16.3516  16.3655  16.3751  16.3977  16.4190
    16.4359  16.4365  16.4492  16.4643  16.4805  16.4857  16.4902  16.5059
    16.5200  16.5245  16.5258  16.5363  16.5414  16.5804  16.6348  16.6552
    16.6589  16.6792  16.6899  16.6938  16.7099  16.7254  16.7606  16.7651
    16.7715  16.7851  16.7965  16.8151  16.8312  16.8342  16.8344  16.8475
    16.8538  16.8871  16.9181  16.9257  16.9607  16.9702  16.9924  17.0042
    17.0218  17.0348  17.0468  17.0680  17.0698  17.0977  17.0993  17.1252
    17.1314  17.1966  17.2207  17.2348  17.2901  17.3352  17.3699  17.4510
    17.4653  17.5480  17.5575  17.5963  17.6141  17.6209  17.6651  17.6889
    17.7142  17.7593  17.8205  17.8728  17.9604  18.0217  18.0599  18.1021
    18.1315  18.2097  18.3064  18.3128  18.3667  18.3768  18.4125  18.5227
    18.5626  18.5754  18.6213  18.6377  18.6478  18.6941  18.7252  18.7312
    18.7545  18.7649  18.7706  18.7988  18.8272  18.8339  18.8548  18.8854
    18.9071  18.9321  18.9547  18.9665  18.9934  19.0011  19.0120  19.0305
    19.0320  19.0440  19.0606  19.0665  19.1005  19.1253  19.1341  19.1406
    19.1426  19.1794  19.1916  19.2048  19.2259  19.2384  19.2442  19.2448
    19.2582  19.2754  19.2824  19.3023  19.3095  19.3182  19.3209  19.3380
    19.3428  19.3852  19.3899  19.4038  19.4127  19.4355  19.4462  19.4731
    19.4811  19.4947  19.5070  19.5105  19.5246  19.5554  19.5701  19.5740
    19.5938  19.6092  19.6193  19.6223  19.6261  19.6323  19.6431  19.6546
    19.6606  19.6636  19.6721  19.6722  19.6803  19.6808  19.6848  19.6937
    19.6969  19.7023  19.7029  19.7167  19.7194  19.7273  19.7297  19.7477
    19.7571  19.7650  19.8169  19.8261  19.8588  19.8601  19.8783  19.8864
    19.8985  19.9007  19.9151  19.9155  19.9268  19.9423  19.9563  20.0297
    20.0319  20.0430  20.0529  20.0646  20.1090  20.2275  20.2607  20.3782
    20.3857  20.4182  20.4635  20.4674  20.5183  20.5300  20.7189  20.7208
    21.1815  21.2047  21.2870  21.2963  21.3670  21.3707  21.3716  21.3751
    22.1303  22.1334

          k =-0.3333-0.3333 0.0000 ( 21886 PWs)   bands (ev):

   -85.5638 -85.5628 -85.5078 -67.6814 -67.6710 -67.6695 -67.6543 -67.6478
   -67.6442 -67.6398 -67.6375 -67.6356 -67.6354 -67.6299 -67.6244 -67.6209
   -67.6187 -67.6161 -67.6094 -67.6049 -67.6042 -67.6012 -67.5996 -67.5978
   -67.5909 -67.5908 -67.5900 -67.5891 -67.5870 -67.5821 -67.5810 -67.5801
   -67.5789 -67.5788 -67.5752 -67.5740 -67.5713 -67.5711 -67.5706 -67.5683
   -67.5653 -67.5651 -67.5647 -67.5600 -67.5599 -67.5568 -67.5562 -67.5556
   -67.5499 -67.5439 -67.5390 -67.5342 -67.5336 -67.5150 -45.7633 -45.7510
   -45.7455 -45.7415 -45.7410 -45.7406 -45.6930 -45.6673 -45.6525 -33.9268
   -33.9223 -33.9019 -33.9011 -33.8986 -33.8978 -33.8855 -33.8848 -33.8810
   -33.8805 -33.8804 -33.8756 -33.8752 -33.8750 -33.8714 -33.8692 -33.8678
   -33.8677 -33.8640 -33.8633 -33.8588 -33.8530 -33.8516 -33.8507 -33.8490
   -33.8488 -33.8401 -33.8354 -33.8348 -33.8343 -33.8324 -33.8300 -33.8243
   -33.8204 -33.8202 -33.8179 -33.8107 -33.8092 -33.8030 -33.8027 -33.7904
   -33.7897 -33.7860 -33.7857 -33.7812 -33.7791 -33.7743 -33.7667 -33.7652
   -33.7621 -33.7606 -33.7599 -33.7577 -33.7542 -33.7523 -33.7520 -33.7515
   -33.7456 -33.7382 -33.7373 -33.7339 -33.7289 -33.7275 -33.7231 -33.7206
   -33.7184 -33.7155 -33.7124 -33.7106 -33.7068 -33.7040 -33.7036 -33.7001
   -33.6960 -33.6916 -33.6877 -33.6872 -33.6862 -33.6841 -33.6786 -33.6774
   -33.6772 -33.6691 -33.6647 -33.6629 -33.6613 -33.6600 -33.6590 -33.6550
   -33.6527 -33.6487 -33.6473 -33.6472 -33.6460 -33.6434 -33.6372 -33.6331
   -33.6327 -33.6303 -33.6274 -33.6256 -33.6256 -33.6230 -33.6174 -33.6146
   -33.6134 -33.6111 -33.6080 -33.6064 -33.6057 -33.6040 -33.5999 -33.5981
   -33.5980 -33.5936 -33.5904 -33.5904 -33.5821 -33.5780 -33.5748 -33.5698
   -33.5683 -33.5668 -33.5645 -33.5632 -33.5595 -33.5581 -33.5557 -33.5552
   -33.5545 -33.5522 -33.5516 -33.5514 -33.5498 -33.5489 -33.5489 -33.5459
   -33.5445 -33.5353 -33.5316 -33.5315 -33.5307 -33.5277 -33.5245 -33.5230
   -33.5220 -33.5214 -33.5172 -33.5147 -33.5128 -33.5124 -33.5095 -33.5078
     9.7468  10.4194  10.5192  11.1448  11.7633  11.7750  12.3074  12.3184
    12.3989  12.3992  12.8464  12.9382  12.9391  12.9435  13.2761  13.3322
    13.8614  13.8631  13.9035  13.9062  13.9385  14.0599  14.1256  14.1901
    14.2930  14.3619  14.3899  14.3944  14.3973  14.4037  14.4707  14.4887
    14.4934  14.4949  14.6926  14.7472  14.8863  14.9006  14.9281  14.9302
    14.9336  15.0112  15.0328  15.0495  15.0917  15.1085  15.1276  15.1437
    15.1697  15.1710  15.2416  15.2839  15.2961  15.3383  15.3468  15.4533
    15.4616  15.4823  15.5819  15.5891  15.6014  15.6080  15.6368  15.7221
    15.7282  15.7544  15.8338  15.8470  15.8631  15.8704  15.8911  15.9471
    15.9575  15.9712  16.0143  16.0743  16.0842  16.1022  16.1040  16.1342
    16.1576  16.1706  16.1792  16.2269  16.2389  16.2650  16.2868  16.3130
    16.3208  16.3487  16.3513  16.3551  16.3677  16.3695  16.3941  16.4078
    16.4639  16.4646  16.4660  16.4806  16.4829  16.4858  16.4964  16.5011
    16.5229  16.5235  16.5238  16.5530  16.5551  16.5647  16.5966  16.6286
    16.6298  16.6671  16.6972  16.7146  16.7195  16.7262  16.7452  16.7528
    16.7776  16.7885  16.8073  16.8188  16.8300  16.8360  16.8508  16.8656
    16.8732  16.8798  16.8855  16.9056  16.9767  16.9812  17.0083  17.0179
    17.0182  17.0222  17.0567  17.0625  17.0740  17.0844  17.0914  17.1082
    17.1228  17.1860  17.2344  17.2623  17.3064  17.3577  17.3835  17.3983
    17.4236  17.5138  17.5544  17.6038  17.6056  17.6411  17.6879  17.6903
    17.7027  17.7797  17.8338  17.9043  17.9173  18.0276  18.0894  18.1134
    18.1157  18.2085  18.2486  18.2935  18.3190  18.4423  18.4597  18.5039
    18.5639  18.5950  18.6112  18.6559  18.6579  18.7169  18.7232  18.7235
    18.7476  18.7570  18.7941  18.8009  18.8345  18.8363  18.8605  18.8902
    18.9057  18.9288  18.9661  18.9714  18.9796  18.9937  19.0040  19.0241
    19.0303  19.0337  19.0487  19.0917  19.1138  19.1241  19.1385  19.1426
    19.1474  19.1762  19.1803  19.1862  19.1868  19.2071  19.2464  19.2528
    19.2547  19.2547  19.2802  19.2829  19.3103  19.3197  19.3264  19.3315
    19.3535  19.3718  19.3801  19.3877  19.4004  19.4035  19.4633  19.4809
    19.4948  19.4964  19.5025  19.5111  19.5217  19.5513  19.5693  19.5736
    19.5816  19.6014  19.6163  19.6171  19.6213  19.6466  19.6475  19.6609
    19.6621  19.6665  19.6741  19.6775  19.6800  19.6841  19.6881  19.6967
    19.6984  19.7005  19.7012  19.7192  19.7201  19.7265  19.7282  19.7534
    19.7563  19.7643  19.8401  19.8541  19.8597  19.8738  19.8862  19.8957
    19.8990  19.9026  19.9124  19.9200  19.9392  19.9503  19.9587  20.0231
    20.0321  20.0323  20.0557  20.0832  20.1298  20.1964  20.2721  20.3594
    20.3824  20.4055  20.4840  20.4937  20.5044  20.5433  20.7164  20.7172
    21.2163  21.2534  21.2626  21.2675  21.3360  21.3443  21.3619  21.3674
    22.1313  22.1347

          k = 0.3333-0.3333 0.3333 ( 21842 PWs)   bands (ev):

   -85.5638 -85.5627 -85.5078 -67.6811 -67.6709 -67.6685 -67.6557 -67.6469
   -67.6451 -67.6426 -67.6371 -67.6354 -67.6347 -67.6318 -67.6222 -67.6195
   -67.6176 -67.6151 -67.6109 -67.6065 -67.6061 -67.6006 -67.5986 -67.5977
   -67.5962 -67.5893 -67.5859 -67.5851 -67.5832 -67.5819 -67.5808 -67.5794
   -67.5784 -67.5778 -67.5759 -67.5749 -67.5740 -67.5726 -67.5723 -67.5693
   -67.5688 -67.5658 -67.5650 -67.5634 -67.5580 -67.5552 -67.5544 -67.5531
   -67.5494 -67.5464 -67.5392 -67.5342 -67.5318 -67.5154 -45.7649 -45.7466
   -45.7432 -45.7391 -45.7386 -45.7354 -45.6894 -45.6639 -45.6503 -33.9242
   -33.9194 -33.9176 -33.9094 -33.9082 -33.9002 -33.8918 -33.8878 -33.8870
   -33.8805 -33.8768 -33.8759 -33.8744 -33.8710 -33.8698 -33.8657 -33.8616
   -33.8597 -33.8590 -33.8575 -33.8533 -33.8524 -33.8503 -33.8482 -33.8425
   -33.8389 -33.8350 -33.8328 -33.8294 -33.8288 -33.8278 -33.8254 -33.8247
   -33.8224 -33.8190 -33.8169 -33.8129 -33.8119 -33.8083 -33.8053 -33.8015
   -33.7987 -33.7966 -33.7908 -33.7867 -33.7849 -33.7832 -33.7820 -33.7773
   -33.7755 -33.7741 -33.7635 -33.7588 -33.7502 -33.7481 -33.7390 -33.7356
   -33.7265 -33.7237 -33.7214 -33.7204 -33.7183 -33.7164 -33.7146 -33.7137
   -33.7113 -33.7093 -33.7073 -33.7058 -33.7015 -33.6995 -33.6985 -33.6968
   -33.6937 -33.6906 -33.6886 -33.6881 -33.6856 -33.6795 -33.6762 -33.6743
   -33.6713 -33.6698 -33.6675 -33.6661 -33.6629 -33.6615 -33.6596 -33.6579
   -33.6579 -33.6567 -33.6552 -33.6541 -33.6538 -33.6504 -33.6477 -33.6447
   -33.6422 -33.6400 -33.6386 -33.6357 -33.6330 -33.6298 -33.6277 -33.6248
   -33.6217 -33.6171 -33.6123 -33.6003 -33.5916 -33.5892 -33.5880 -33.5851
   -33.5826 -33.5799 -33.5791 -33.5778 -33.5768 -33.5749 -33.5697 -33.5683
   -33.5678 -33.5666 -33.5643 -33.5620 -33.5607 -33.5592 -33.5586 -33.5545
   -33.5529 -33.5513 -33.5510 -33.5499 -33.5486 -33.5472 -33.5443 -33.5429
   -33.5413 -33.5390 -33.5328 -33.5299 -33.5292 -33.5278 -33.5276 -33.5254
   -33.5236 -33.5209 -33.5196 -33.5175 -33.5161 -33.5146 -33.5126 -33.5081
     9.9865  10.6403  10.7171  10.7362  11.3217  11.3800  11.3981  12.0071
    13.0006  13.0723  13.0917  13.4361  13.4407  13.4592  13.5156  13.5171
    13.5188  13.9283  13.9654  13.9696  14.0997  14.1083  14.1233  14.1882
    14.2095  14.2193  14.3170  14.3434  14.3597  14.4372  14.4508  14.4707
    14.4906  14.5033  14.5201  14.6289  14.6634  14.6668  14.7361  14.7785
    14.8071  14.8264  14.8343  14.8531  14.8677  14.8993  15.1155  15.1466
    15.1649  15.2158  15.2814  15.2984  15.3300  15.3536  15.3731  15.4034
    15.4579  15.4722  15.4989  15.5291  15.5365  15.5507  15.5641  15.6721
    15.6806  15.7153  15.7221  15.8434  15.8886  15.9375  15.9483  15.9858
    15.9983  16.0091  16.0401  16.0619  16.1066  16.1274  16.1311  16.1429
    16.1542  16.1721  16.1844  16.2033  16.2188  16.2351  16.2515  16.2571
    16.2929  16.2991  16.3123  16.3369  16.3444  16.3540  16.3664  16.3995
    16.4168  16.4526  16.4766  16.5003  16.5323  16.5428  16.5659  16.5790
    16.6031  16.6093  16.6627  16.6750  16.6832  16.6954  16.7048  16.7113
    16.7246  16.7344  16.7535  16.7708  16.7796  16.7875  16.7921  16.8001
    16.8089  16.8172  16.8303  16.8544  16.8657  16.8712  16.8821  16.9173
    16.9243  16.9281  16.9468  16.9564  16.9703  16.9856  16.9914  17.0273
    17.0690  17.0828  17.0995  17.1321  17.1402  17.1733  17.1883  17.1945
    17.2390  17.2630  17.2756  17.2910  17.3038  17.3138  17.3403  17.3500
    17.3620  17.3838  17.3967  17.4221  17.4256  17.4719  17.5988  17.6485
    17.7204  17.7780  17.9273  17.9386  17.9748  18.0628  18.0995  18.1328
    18.1793  18.2005  18.2692  18.2913  18.3224  18.3824  18.3937  18.4231
    18.4746  18.5032  18.5813  18.6144  18.6600  18.6639  18.7024  18.7234
    18.7560  18.7699  18.7981  18.8109  18.8437  18.8485  18.8879  18.8986
    18.9202  18.9398  18.9487  18.9558  18.9636  19.0120  19.0196  19.0387
    19.0707  19.0764  19.0917  19.0981  19.1202  19.1291  19.1488  19.1584
    19.1766  19.1825  19.2073  19.2189  19.2385  19.2462  19.2735  19.2895
    19.3064  19.3143  19.3312  19.3372  19.3523  19.3662  19.3732  19.3919
    19.3934  19.4118  19.4168  19.4275  19.4415  19.4538  19.4565  19.4681
    19.4756  19.4854  19.4967  19.5021  19.5213  19.5215  19.5296  19.5616
    19.5682  19.5846  19.5940  19.6063  19.6259  19.6383  19.6450  19.6549
    19.6582  19.6597  19.6610  19.6721  19.6751  19.6814  19.6837  19.6913
    19.6962  19.7057  19.7103  19.7144  19.7174  19.7199  19.7241  19.7354
    19.7553  19.7603  19.7651  19.7754  19.7818  19.7962  19.8464  19.8544
    19.8923  19.9302  19.9451  19.9576  19.9674  19.9714  20.0000  20.0023
    20.0120  20.1072  20.1160  20.1245  20.1410  20.1469  20.1604  20.6158
    20.6289  20.6477  20.6769  20.6905  20.7176  20.7315  20.8000  20.8258
    21.0366  21.0569  21.0672  21.0816  21.0954  21.1084  21.1205  21.1345
    21.1758  21.6691

     the Fermi energy is    17.4876 ev

!    total energy              =  -13654.31167097 Ry
     estimated scf accuracy    <       0.00000096 Ry
     smearing contrib. (-TS)   =       0.05443421 Ry
     internal energy E=F+TS    =  -13654.36610518 Ry

     The total energy is F=E-TS. E is the sum of the following terms:
     one-electron contribution =   -6421.97386585 Ry
     hartree contribution      =    3705.66333791 Ry
     xc contribution           =   -1519.02223046 Ry
     ewald contribution        =   -9419.03334677 Ry

     total magnetization       =   129.42 Bohr mag/cell
     absolute magnetization    =   137.41 Bohr mag/cell

     convergence has been achieved in  72 iterations

     Writing all to output data dir ./outdir/fe54_3ni_clust.save/ :
     XML data file, charge density, pseudopotentials, collected wavefunctions

     init_run     :     92.89s CPU     95.55s WALL (       1 calls)
     electrons    :  20440.58s CPU  20848.29s WALL (       1 calls)

     Called by init_run:
     wfcinit      :     88.59s CPU     90.90s WALL (       1 calls)
     potinit      :      0.92s CPU      0.99s WALL (       1 calls)
     hinit0       :      1.24s CPU      1.27s WALL (       1 calls)

     Called by electrons:
     c_bands      :  18159.93s CPU  18493.44s WALL (      72 calls)
     sum_band     :   2097.48s CPU   2153.70s WALL (      72 calls)
     v_of_rho     :     34.64s CPU     35.22s WALL (      73 calls)
     newd         :    135.75s CPU    152.95s WALL (      73 calls)
     mix_rho      :     12.52s CPU     12.87s WALL (      72 calls)

     Called by c_bands:
     init_us_2    :     94.79s CPU     95.03s WALL (    2320 calls)
     cegterg      :  17713.74s CPU  18046.23s WALL (    1152 calls)

     Called by *egterg:
     cdiaghg      :   1828.03s CPU   1875.33s WALL (    3503 calls)
     h_psi        :   7369.50s CPU   7544.44s WALL (    3519 calls)
     s_psi        :   1837.04s CPU   1840.43s WALL (    3519 calls)
     g_psi        :     40.88s CPU     40.98s WALL (    2351 calls)

     Called by h_psi:
     h_psi:calbec :   1928.54s CPU   1938.84s WALL (    3519 calls)
     vloc_psi     :   3566.58s CPU   3690.25s WALL (    3519 calls)
                                        0.00s GPU  (    3519 calls)
     add_vuspsi   :   1850.80s CPU   1854.35s WALL (    3519 calls)

     General routines
     calbec       :   2836.88s CPU   2852.02s WALL (    4671 calls)
     fft          :     13.98s CPU     14.71s WALL (    1819 calls)
     ffts         :      4.09s CPU      4.36s WALL (    1725 calls)
     fftw         :   3813.77s CPU   3951.86s WALL ( 3134216 calls)
     interpolate  :      2.12s CPU      2.20s WALL (     146 calls)

     Parallel routines

     PWSCF        :      5h42m CPU      5h49m WALL


   This run was terminated on:   1:22:47  20Jun2026            

=------------------------------------------------------------------------------=
   JOB DONE.
=------------------------------------------------------------------------------=
