
     Program PWSCF v.7.5 starts on 19Jun2026 at 18:45:51 

     This program is part of the open-source Quantum ESPRESSO suite
     for quantum simulation of materials; please cite
         "P. Giannozzi et al., J. Phys.:Condens. Matter 21 395502 (2009);
         "P. Giannozzi et al., J. Phys.:Condens. Matter 29 465901 (2017);
         "P. Giannozzi et al., J. Chem. Phys. 152 154105 (2020);
          URL http://www.quantum-espresso.org", 
     in publications or presentations arising from this work. More details at
     http://www.quantum-espresso.org/quote

     Parallel version (MPI & OpenMP), running on       4 processor cores
     Number of MPI processes:                 4
     Threads/MPI process:                     1

     MPI processes distributed on     1 nodes
     28778 MiB available memory on the printing compute node when the environment starts

     Reading input from fe54_pure.scf.in

     Current dimensions of program PWSCF are:
     Max number of different atomic species (ntypx) = 10
     Max number of k-points (npk) =  40000
     Max angular momentum in pseudopotentials (lmaxx) =  4
     file Fe.pbe-spn-rrkjus_psl.1.0.0.UPF: wavefunction(s)  3P 3D renormalized
     Found identity + (  0.1667  0.1667  0.1667) symmetry
     This is a supercell, fractional translations are disabled

     R & G space division:  proc/nbgrp/npool/nimage =       4
     Subspace diagonalization in iterative solution of the eigenvalue problem:
     one sub-group per band group will be used
     ELPA distributed-memory algorithm (size of sub-group:  2*  2 procs)


     Parallelization info
     --------------------
     sticks:   dense  smooth     PW     G-vecs:    dense   smooth      PW
     Min        1893     944    251               123669    43650    6027
     Max        1894     945    252               123672    43653    6030
     Sum        7573    3777   1005               494679   174605   24111

     Using Slab Decomposition



     bravais-lattice index     =            1
     lattice parameter (alat)  =      16.2480  a.u.
     unit-cell volume          =    4289.4314 (a.u.)^3
     number of atoms/cell      =           54
     number of atomic types    =            1
     number of electrons       =       864.00
     number of Kohn-Sham states=          518
     kinetic-energy cutoff     =      45.0000  Ry
     charge density cutoff     =     360.0000  Ry
     scf convergence threshold =      1.0E-06
     mixing beta               =       0.2000
     number of iterations used =            8  local-TF  mixing
     Exchange-correlation= PBE
                           (   1   4   3   4   0   0   0)

     celldm(1)=  16.248000  celldm(2)=   0.000000  celldm(3)=   0.000000
     celldm(4)=   0.000000  celldm(5)=   0.000000  celldm(6)=   0.000000

     crystal axes: (cart. coord. in units of alat)
               a(1) = (   1.000000   0.000000   0.000000 )  
               a(2) = (   0.000000   1.000000   0.000000 )  
               a(3) = (   0.000000   0.000000   1.000000 )  

     reciprocal axes: (cart. coord. in units 2 pi/alat)
               b(1) = (  1.000000  0.000000  0.000000 )  
               b(2) = (  0.000000  1.000000  0.000000 )  
               b(3) = (  0.000000  0.000000  1.000000 )  


     PseudoPot. # 1 for Fe read from file:
     ../pseudo/Fe.pbe-spn-rrkjus_psl.1.0.0.UPF
     MD5 check sum: 72ea77fed8e64ab3a2ccf2804dfc1862
     Pseudo is Ultrasoft + core correction, Zval = 16.0
     Generated using &quot;atomic&quot; code by A. Dal Corso  v.6.3
     Using radial grid of 1191 points,  6 beta functions with: 
                l(1) =   0
                l(2) =   0
                l(3) =   1
                l(4) =   1
                l(5) =   2
                l(6) =   2
     Q(r) pseudized with 0 coefficients 


     atomic species   valence    mass     pseudopotential
     Fe               16.00    55.84500     Fe( 1.00)

     Starting magnetic structure 
     atomic species   magnetization
     Fe              0.500

     48 Sym. Ops., with inversion, found



   Cartesian axes

     site n.     atom                  positions (alat units)
         1        Fe     tau(   1) = (   0.0000000   0.0000000   0.0000000  )
         2        Fe     tau(   2) = (   0.1666670   0.1666670   0.1666670  )
         3        Fe     tau(   3) = (   0.0000000   0.0000000   0.3333330  )
         4        Fe     tau(   4) = (   0.1666670   0.1666670   0.5000000  )
         5        Fe     tau(   5) = (   0.0000000   0.0000000   0.6666670  )
         6        Fe     tau(   6) = (   0.1666670   0.1666670   0.8333330  )
         7        Fe     tau(   7) = (   0.0000000   0.3333330   0.0000000  )
         8        Fe     tau(   8) = (   0.1666670   0.5000000   0.1666670  )
         9        Fe     tau(   9) = (   0.0000000   0.3333330   0.3333330  )
        10        Fe     tau(  10) = (   0.1666670   0.5000000   0.5000000  )
        11        Fe     tau(  11) = (   0.0000000   0.3333330   0.6666670  )
        12        Fe     tau(  12) = (   0.1666670   0.5000000   0.8333330  )
        13        Fe     tau(  13) = (   0.0000000   0.6666670   0.0000000  )
        14        Fe     tau(  14) = (   0.1666670   0.8333330   0.1666670  )
        15        Fe     tau(  15) = (   0.0000000   0.6666670   0.3333330  )
        16        Fe     tau(  16) = (   0.1666670   0.8333330   0.5000000  )
        17        Fe     tau(  17) = (   0.0000000   0.6666670   0.6666670  )
        18        Fe     tau(  18) = (   0.1666670   0.8333330   0.8333330  )
        19        Fe     tau(  19) = (   0.3333330   0.0000000   0.0000000  )
        20        Fe     tau(  20) = (   0.5000000   0.1666670   0.1666670  )
        21        Fe     tau(  21) = (   0.3333330   0.0000000   0.3333330  )
        22        Fe     tau(  22) = (   0.5000000   0.1666670   0.5000000  )
        23        Fe     tau(  23) = (   0.3333330   0.0000000   0.6666670  )
        24        Fe     tau(  24) = (   0.5000000   0.1666670   0.8333330  )
        25        Fe     tau(  25) = (   0.3333330   0.3333330   0.0000000  )
        26        Fe     tau(  26) = (   0.5000000   0.5000000   0.1666670  )
        27        Fe     tau(  27) = (   0.3333330   0.3333330   0.3333330  )
        28        Fe     tau(  28) = (   0.5000000   0.5000000   0.5000000  )
        29        Fe     tau(  29) = (   0.3333330   0.3333330   0.6666670  )
        30        Fe     tau(  30) = (   0.5000000   0.5000000   0.8333330  )
        31        Fe     tau(  31) = (   0.3333330   0.6666670   0.0000000  )
        32        Fe     tau(  32) = (   0.5000000   0.8333330   0.1666670  )
        33        Fe     tau(  33) = (   0.3333330   0.6666670   0.3333330  )
        34        Fe     tau(  34) = (   0.5000000   0.8333330   0.5000000  )
        35        Fe     tau(  35) = (   0.3333330   0.6666670   0.6666670  )
        36        Fe     tau(  36) = (   0.5000000   0.8333330   0.8333330  )
        37        Fe     tau(  37) = (   0.6666670   0.0000000   0.0000000  )
        38        Fe     tau(  38) = (   0.8333330   0.1666670   0.1666670  )
        39        Fe     tau(  39) = (   0.6666670   0.0000000   0.3333330  )
        40        Fe     tau(  40) = (   0.8333330   0.1666670   0.5000000  )
        41        Fe     tau(  41) = (   0.6666670   0.0000000   0.6666670  )
        42        Fe     tau(  42) = (   0.8333330   0.1666670   0.8333330  )
        43        Fe     tau(  43) = (   0.6666670   0.3333330   0.0000000  )
        44        Fe     tau(  44) = (   0.8333330   0.5000000   0.1666670  )
        45        Fe     tau(  45) = (   0.6666670   0.3333330   0.3333330  )
        46        Fe     tau(  46) = (   0.8333330   0.5000000   0.5000000  )
        47        Fe     tau(  47) = (   0.6666670   0.3333330   0.6666670  )
        48        Fe     tau(  48) = (   0.8333330   0.5000000   0.8333330  )
        49        Fe     tau(  49) = (   0.6666670   0.6666670   0.0000000  )
        50        Fe     tau(  50) = (   0.8333330   0.8333330   0.1666670  )
        51        Fe     tau(  51) = (   0.6666670   0.6666670   0.3333330  )
        52        Fe     tau(  52) = (   0.8333330   0.8333330   0.5000000  )
        53        Fe     tau(  53) = (   0.6666670   0.6666670   0.6666670  )
        54        Fe     tau(  54) = (   0.8333330   0.8333330   0.8333330  )

     number of k points=     4  Marzari-Vanderbilt smearing, width (Ry)=  0.0200
                       cart. coord. in units 2pi/alat
        k(    1) = (   0.0000000   0.0000000   0.0000000), wk =   0.0370370
        k(    2) = (   0.0000000   0.0000000   0.3333333), wk =   0.2222222
        k(    3) = (   0.0000000   0.3333333   0.3333333), wk =   0.4444444
        k(    4) = (   0.3333333   0.3333333   0.3333333), wk =   0.2962963

     Dense  grid:   494679 G-vectors     FFT dimensions: ( 100, 100, 100)

     Smooth grid:   174605 G-vectors     FFT dimensions: (  72,  72,  72)

     Estimated max dynamical RAM per process >       1.02 GB

     Estimated total dynamical RAM >       4.07 GB

     Check: negative core charge=   -0.000004
     Generating pointlists ...
     new r_m :   0.1191 (alat units)  1.9348 (a.u.) for type    1

     Initial potential from superposition of free atoms

     starting charge     863.9764, renormalised to     864.0000
     Starting wfcs are  540 randomized atomic wfcs

     total cpu time spent up to now is       49.6 secs

     per-process dynamical memory:   577.8 Mb

     Self-consistent Calculation

     iteration #  1     ecut=    45.00 Ry     beta= 0.20
     Davidson diagonalization with overlap
     ethr =  1.00E-02,  avg # of iterations =  3.5

     total cpu time spent up to now is      227.9 secs

     total energy              =  -13362.59218921 Ry
     estimated scf accuracy    <      31.28982344 Ry

     total magnetization       =   172.01 Bohr mag/cell
     absolute magnetization    =   179.70 Bohr mag/cell

     iteration #  2     ecut=    45.00 Ry     beta= 0.20
     Davidson diagonalization with overlap
     ethr =  3.62E-03,  avg # of iterations =  1.9

     negative rho (up, down):  0.000E+00 2.495E-02

     total cpu time spent up to now is      370.6 secs

     total energy              =  -13376.90025626 Ry
     estimated scf accuracy    <      20.92149679 Ry

     total magnetization       =   170.83 Bohr mag/cell
     absolute magnetization    =   178.61 Bohr mag/cell

     iteration #  3     ecut=    45.00 Ry     beta= 0.20
     Davidson diagonalization with overlap
     ethr =  2.42E-03,  avg # of iterations =  1.6

     negative rho (up, down):  0.000E+00 2.695E-02

     total cpu time spent up to now is      508.5 secs

     total energy              =  -13378.94010946 Ry
     estimated scf accuracy    <       0.42070327 Ry

     total magnetization       =   143.83 Bohr mag/cell
     absolute magnetization    =   157.18 Bohr mag/cell

     iteration #  4     ecut=    45.00 Ry     beta= 0.20
     Davidson diagonalization with overlap
     ethr =  4.87E-05,  avg # of iterations =  6.5

     negative rho (up, down):  0.000E+00 2.205E-02

     total cpu time spent up to now is      702.2 secs

     total energy              =  -13379.11121670 Ry
     estimated scf accuracy    <       0.15898921 Ry

     total magnetization       =   140.70 Bohr mag/cell
     absolute magnetization    =   151.61 Bohr mag/cell

     iteration #  5     ecut=    45.00 Ry     beta= 0.20
     Davidson diagonalization with overlap
     ethr =  1.84E-05,  avg # of iterations =  1.8

     negative rho (up, down):  0.000E+00 4.634E-03

     total cpu time spent up to now is      845.4 secs

     total energy              =  -13379.04504094 Ry
     estimated scf accuracy    <       0.07025086 Ry

     total magnetization       =   138.15 Bohr mag/cell
     absolute magnetization    =   148.80 Bohr mag/cell

     iteration #  6     ecut=    45.00 Ry     beta= 0.20
     Davidson diagonalization with overlap
     ethr =  8.13E-06,  avg # of iterations =  4.1

     negative rho (up, down):  0.000E+00 4.546E-03

     total cpu time spent up to now is     1059.0 secs

     total energy              =  -13379.26899805 Ry
     estimated scf accuracy    <       0.22322459 Ry

     total magnetization       =   124.29 Bohr mag/cell
     absolute magnetization    =   133.48 Bohr mag/cell

     iteration #  7     ecut=    45.00 Ry     beta= 0.20
     Davidson diagonalization with overlap
     ethr =  8.13E-06,  avg # of iterations =  1.5

     negative rho (up, down):  0.000E+00 4.330E-03

     total cpu time spent up to now is     1193.6 secs

     total energy              =  -13379.16189180 Ry
     estimated scf accuracy    <       0.32022799 Ry

     total magnetization       =   124.72 Bohr mag/cell
     absolute magnetization    =   133.77 Bohr mag/cell

     iteration #  8     ecut=    45.00 Ry     beta= 0.20
     Davidson diagonalization with overlap
     ethr =  8.13E-06,  avg # of iterations =  5.4

     negative rho (up, down):  0.000E+00 3.877E-03

     total cpu time spent up to now is     1415.7 secs

     total energy              =  -13379.22558594 Ry
     estimated scf accuracy    <       0.00173246 Ry

     total magnetization       =   129.54 Bohr mag/cell
     absolute magnetization    =   138.10 Bohr mag/cell

     iteration #  9     ecut=    45.00 Ry     beta= 0.20
     Davidson diagonalization with overlap
     ethr =  2.01E-07,  avg # of iterations =  3.9

     negative rho (up, down):  0.000E+00 3.480E-03

     total cpu time spent up to now is     1632.0 secs

     total energy              =  -13379.22779060 Ry
     estimated scf accuracy    <       0.00572677 Ry

     total magnetization       =   129.39 Bohr mag/cell
     absolute magnetization    =   137.82 Bohr mag/cell

     iteration # 10     ecut=    45.00 Ry     beta= 0.20
     Davidson diagonalization with overlap
     ethr =  2.01E-07,  avg # of iterations =  3.5

     negative rho (up, down):  0.000E+00 3.311E-03

     total cpu time spent up to now is     1802.6 secs

     total energy              =  -13379.22916372 Ry
     estimated scf accuracy    <       0.00158017 Ry

     total magnetization       =   128.56 Bohr mag/cell
     absolute magnetization    =   136.77 Bohr mag/cell

     iteration # 11     ecut=    45.00 Ry     beta= 0.20
     Davidson diagonalization with overlap
     ethr =  1.83E-07,  avg # of iterations =  4.4

     negative rho (up, down):  0.000E+00 3.163E-03

     total cpu time spent up to now is     1981.1 secs

     total energy              =  -13379.23118863 Ry
     estimated scf accuracy    <       0.00015074 Ry

     total magnetization       =   127.39 Bohr mag/cell
     absolute magnetization    =   135.44 Bohr mag/cell

     iteration # 12     ecut=    45.00 Ry     beta= 0.20
     Davidson diagonalization with overlap
     ethr =  1.74E-08,  avg # of iterations =  4.2

     negative rho (up, down):  0.000E+00 3.050E-03

     total cpu time spent up to now is     2159.2 secs

     total energy              =  -13379.23179309 Ry
     estimated scf accuracy    <       0.00004498 Ry

     total magnetization       =   127.17 Bohr mag/cell
     absolute magnetization    =   135.18 Bohr mag/cell

     iteration # 13     ecut=    45.00 Ry     beta= 0.20
     Davidson diagonalization with overlap
     ethr =  5.21E-09,  avg # of iterations =  3.5

     negative rho (up, down):  0.000E+00 2.927E-03

     total cpu time spent up to now is     2323.7 secs

     total energy              =  -13379.23204564 Ry
     estimated scf accuracy    <       0.00002643 Ry

     total magnetization       =   127.03 Bohr mag/cell
     absolute magnetization    =   135.02 Bohr mag/cell

     iteration # 14     ecut=    45.00 Ry     beta= 0.20
     Davidson diagonalization with overlap
     ethr =  3.06E-09,  avg # of iterations =  5.2

     negative rho (up, down):  0.000E+00 2.924E-03

     total cpu time spent up to now is     2541.9 secs

     total energy              =  -13379.23241504 Ry
     estimated scf accuracy    <       0.00001774 Ry

     total magnetization       =   126.66 Bohr mag/cell
     absolute magnetization    =   134.61 Bohr mag/cell

     iteration # 15     ecut=    45.00 Ry     beta= 0.20
     Davidson diagonalization with overlap
     ethr =  2.05E-09,  avg # of iterations =  2.0

     negative rho (up, down):  0.000E+00 2.900E-03

     total cpu time spent up to now is     2691.8 secs

     total energy              =  -13379.23255471 Ry
     estimated scf accuracy    <       0.00000747 Ry

     total magnetization       =   126.69 Bohr mag/cell
     absolute magnetization    =   134.64 Bohr mag/cell

     iteration # 16     ecut=    45.00 Ry     beta= 0.20
     Davidson diagonalization with overlap
     ethr =  8.65E-10,  avg # of iterations =  3.2

     negative rho (up, down):  0.000E+00 2.874E-03

     Magnetic moment per site  (integrated on atomic sphere of radius R)
     atom   1 (R=0.119)  charge= 14.4204  magn=  2.4079
     atom   2 (R=0.119)  charge= 14.4215  magn=  2.4086
     atom   3 (R=0.119)  charge= 14.4210  magn=  2.4082
     atom   4 (R=0.119)  charge= 14.4215  magn=  2.4084
     atom   5 (R=0.119)  charge= 14.4210  magn=  2.4082
     atom   6 (R=0.119)  charge= 14.4215  magn=  2.4086
     atom   7 (R=0.119)  charge= 14.4210  magn=  2.4082
     atom   8 (R=0.119)  charge= 14.4215  magn=  2.4084
     atom   9 (R=0.119)  charge= 14.4215  magn=  2.4084
     atom  10 (R=0.119)  charge= 14.4210  magn=  2.4081
     atom  11 (R=0.119)  charge= 14.4215  magn=  2.4084
     atom  12 (R=0.119)  charge= 14.4215  magn=  2.4084
     atom  13 (R=0.119)  charge= 14.4210  magn=  2.4082
     atom  14 (R=0.119)  charge= 14.4215  magn=  2.4086
     atom  15 (R=0.119)  charge= 14.4215  magn=  2.4084
     atom  16 (R=0.119)  charge= 14.4215  magn=  2.4084
     atom  17 (R=0.119)  charge= 14.4215  magn=  2.4084
     atom  18 (R=0.119)  charge= 14.4215  magn=  2.4086
     atom  19 (R=0.119)  charge= 14.4210  magn=  2.4082
     atom  20 (R=0.119)  charge= 14.4215  magn=  2.4084
     atom  21 (R=0.119)  charge= 14.4215  magn=  2.4084
     atom  22 (R=0.119)  charge= 14.4210  magn=  2.4081
     atom  23 (R=0.119)  charge= 14.4215  magn=  2.4084
     atom  24 (R=0.119)  charge= 14.4215  magn=  2.4084
     atom  25 (R=0.119)  charge= 14.4215  magn=  2.4084
     atom  26 (R=0.119)  charge= 14.4210  magn=  2.4081
     atom  27 (R=0.119)  charge= 14.4215  magn=  2.4085
     atom  28 (R=0.119)  charge= 14.4204  magn=  2.4078
     atom  29 (R=0.119)  charge= 14.4215  magn=  2.4085
     atom  30 (R=0.119)  charge= 14.4210  magn=  2.4081
     atom  31 (R=0.119)  charge= 14.4215  magn=  2.4084
     atom  32 (R=0.119)  charge= 14.4215  magn=  2.4084
     atom  33 (R=0.119)  charge= 14.4215  magn=  2.4085
     atom  34 (R=0.119)  charge= 14.4210  magn=  2.4081
     atom  35 (R=0.119)  charge= 14.4215  magn=  2.4085
     atom  36 (R=0.119)  charge= 14.4215  magn=  2.4084
     atom  37 (R=0.119)  charge= 14.4210  magn=  2.4082
     atom  38 (R=0.119)  charge= 14.4215  magn=  2.4086
     atom  39 (R=0.119)  charge= 14.4215  magn=  2.4084
     atom  40 (R=0.119)  charge= 14.4215  magn=  2.4084
     atom  41 (R=0.119)  charge= 14.4215  magn=  2.4084
     atom  42 (R=0.119)  charge= 14.4215  magn=  2.4086
     atom  43 (R=0.119)  charge= 14.4215  magn=  2.4084
     atom  44 (R=0.119)  charge= 14.4215  magn=  2.4084
     atom  45 (R=0.119)  charge= 14.4215  magn=  2.4085
     atom  46 (R=0.119)  charge= 14.4210  magn=  2.4081
     atom  47 (R=0.119)  charge= 14.4215  magn=  2.4085
     atom  48 (R=0.119)  charge= 14.4215  magn=  2.4084
     atom  49 (R=0.119)  charge= 14.4215  magn=  2.4084
     atom  50 (R=0.119)  charge= 14.4215  magn=  2.4086
     atom  51 (R=0.119)  charge= 14.4215  magn=  2.4085
     atom  52 (R=0.119)  charge= 14.4215  magn=  2.4084
     atom  53 (R=0.119)  charge= 14.4215  magn=  2.4085
     atom  54 (R=0.119)  charge= 14.4215  magn=  2.4086

     total cpu time spent up to now is     2864.4 secs

     End of self-consistent calculation

 ------ SPIN UP ------------


          k = 0.0000 0.0000 0.0000 ( 21879 PWs)   bands (ev):

   -70.7590 -70.7266 -70.7266 -70.7266 -70.7265 -70.7265 -70.7265 -70.7088
   -70.7088 -70.7088 -70.7087 -70.7087 -70.7087 -70.7087 -70.7087 -70.7087
   -70.7087 -70.7087 -70.7087 -70.6984 -70.6983 -70.6983 -70.6983 -70.6982
   -70.6982 -70.6982 -70.6982 -70.6836 -70.6835 -70.6835 -70.6835 -70.6834
   -70.6834 -70.6834 -70.6834 -70.6797 -70.6797 -70.6797 -70.6796 -70.6796
   -70.6796 -70.6796 -70.6796 -70.6796 -70.6795 -70.6795 -70.6795 -70.6684
   -70.6684 -70.6684 -70.6683 -70.6683 -70.6683 -70.6422 -36.8775 -36.8775
   -36.8775 -36.8774 -36.8774 -36.8774 -36.8774 -36.8774 -36.8774 -36.8773
   -36.8773 -36.8773 -36.8249 -36.8248 -36.8248 -36.8248 -36.8247 -36.8247
   -36.8247 -36.8245 -36.8062 -36.8062 -36.8062 -36.8061 -36.8061 -36.8061
   -36.8061 -36.8061 -36.8061 -36.8060 -36.8060 -36.8060 -36.8038 -36.8038
   -36.8038 -36.7870 -36.7870 -36.7869 -36.7869 -36.7869 -36.7869 -36.7869
   -36.7869 -36.7868 -36.7868 -36.7868 -36.7867 -36.7867 -36.7867 -36.7866
   -36.7866 -36.7866 -36.7866 -36.7866 -36.7865 -36.7865 -36.7865 -36.7333
   -36.7333 -36.7333 -36.7333 -36.7333 -36.7333 -36.7331 -36.7331 -36.7331
   -36.7331 -36.7331 -36.7331 -36.7018 -36.7018 -36.7018 -36.7017 -36.7017
   -36.7017 -36.7017 -36.7017 -36.7017 -36.7016 -36.7016 -36.7016 -36.6303
   -36.6303 -36.6303 -36.6302 -36.6302 -36.6302 -36.6302 -36.6302 -36.6302
   -36.6301 -36.6301 -36.6301 -36.6288 -36.6288 -36.6288 -36.6287 -36.6287
   -36.6287 -36.6192 -36.6192 -36.6191 -36.6191 -36.6191 -36.6191 -36.6191
   -36.6191 -36.6190 -36.6190 -36.6190 -36.6189 -36.6189 -36.6189 -36.6188
   -36.6188 -36.6052 -36.6052 -36.6052 -36.6051 -36.6051 -36.6051 -36.6051
   -36.6051 -36.6051 -36.6050 -36.6050 -36.6050 -36.5976 -36.5976 -36.5976
   -36.5976 -36.5976 -36.5976 -36.5975 -36.5975 -36.5975 -36.5975 -36.5975
   -36.5975 -36.5789 -36.5788 -36.5788 -36.5788 -36.5787 -36.5787 -36.5787
   -36.5785 -36.5294 -36.5294 -36.5294 -36.5293 -36.5293 -36.5293 -36.5293
   -36.5293 -36.5293 -36.5292 -36.5292 -36.5292 -36.5276 -36.5276 -36.5276
     9.2166  11.2603  11.2603  11.2603  11.2604  11.2604  11.2604  12.3991
    12.3991  12.3992  12.3994  12.3994  12.3994  12.3994  12.3994  12.3994
    12.3998  12.3998  12.3998  12.8385  12.8385  13.2312  13.2312  13.2312
    13.2313  13.2313  13.2313  13.2313  13.2313  13.2313  13.2314  13.2314
    13.2314  13.4078  13.4078  13.4078  13.4083  13.4083  13.4083  13.7006
    13.7006  13.7006  13.7007  13.7008  13.7008  13.8606  13.8610  13.8610
    13.8610  13.8614  13.8614  13.8614  13.8619  13.9342  13.9343  13.9343
    13.9343  13.9345  13.9345  13.9345  13.9346  14.2322  14.2322  14.2322
    14.2322  14.2322  14.2323  14.2323  14.2323  14.2325  14.2325  14.2325
    14.2325  14.2325  14.2326  14.2326  14.2326  14.4621  14.4621  14.4622
    14.4622  14.4622  14.4623  14.4623  14.4623  14.4624  14.4624  14.4624
    14.4625  14.4625  14.4625  14.4626  14.4626  14.4675  14.4676  14.4676
    14.4677  14.4677  14.4677  14.4677  14.4677  14.4677  14.4678  14.4678
    14.4678  14.7436  14.7436  14.7436  14.7438  14.7438  14.7438  14.7438
    14.7438  14.7438  14.7440  14.7440  14.7440  14.8186  14.8186  14.8186
    14.8186  14.8186  14.8186  14.8186  14.8186  14.8186  14.8186  14.8186
    14.8186  15.2645  15.2645  15.2645  15.3242  15.3242  15.3242  15.3242
    15.3242  15.3242  15.3243  15.3243  15.3243  15.3244  15.3244  15.3244
    15.4912  15.4912  15.4912  15.4914  15.4914  15.4914  15.5427  15.5428
    15.5428  15.5428  15.5428  15.5428  15.5428  15.5428  15.5428  15.5428
    15.5428  15.5428  15.7808  15.7808  15.7808  15.7810  15.7810  15.7810
    16.0873  16.0873  16.0873  16.0873  16.0873  16.0873  16.0874  16.0874
    16.0874  16.0874  16.0874  16.0874  16.2436  16.2436  16.2436  16.2436
    16.2436  16.2436  16.2436  16.2436  16.2436  16.2436  16.2436  16.2436
    16.3591  16.3591  16.3591  16.3592  16.3592  16.3592  16.3592  16.3592
    16.3592  16.3593  16.3593  16.3594  16.4035  16.4035  16.5117  16.5117
    16.5118  16.5118  16.5118  16.5119  16.5119  16.5119  16.5119  16.5119
    16.5119  16.5120  16.5120  16.5120  16.5121  16.5121  16.5364  16.5364
    16.5364  16.5365  16.5365  16.5365  16.5365  16.5365  16.5365  16.5366
    16.5366  16.5366  16.6512  16.6512  16.6513  16.6513  16.6513  16.6514
    16.6514  16.6514  16.6514  16.6514  16.6514  16.6515  16.6515  16.6515
    16.6516  16.6516  16.8267  16.8267  16.8267  16.8267  16.8267  16.8268
    16.9102  16.9102  16.9102  16.9105  16.9105  16.9105  17.0085  17.0085
    17.0085  17.0086  17.0086  17.0086  17.0086  17.0086  17.0086  17.0087
    17.0087  17.0087  17.4636  17.4636  17.4636  17.6501  17.6501  17.6501
    17.6503  17.6503  17.6503  17.6503  17.6503  17.6503  17.6504  17.6504
    17.6504  19.3542  19.3548  19.3548  19.3548  19.3554  19.3554  19.3554
    19.3560  20.1997  20.1997  20.2003  20.2009  20.2009

          k = 0.0000 0.0000 0.3333 ( 21891 PWs)   bands (ev):

   -70.7553 -70.7438 -70.7245 -70.7245 -70.7244 -70.7244 -70.7180 -70.7180
   -70.7179 -70.7179 -70.7075 -70.7075 -70.7075 -70.7074 -70.7067 -70.7036
   -70.7036 -70.7036 -70.7035 -70.6984 -70.6984 -70.6983 -70.6983 -70.6925
   -70.6924 -70.6924 -70.6924 -70.6882 -70.6882 -70.6881 -70.6881 -70.6874
   -70.6873 -70.6873 -70.6872 -70.6865 -70.6811 -70.6810 -70.6810 -70.6809
   -70.6799 -70.6798 -70.6798 -70.6797 -70.6733 -70.6733 -70.6732 -70.6732
   -70.6696 -70.6696 -70.6696 -70.6696 -70.6539 -70.6449 -36.8811 -36.8811
   -36.8810 -36.8810 -36.8612 -36.8611 -36.8611 -36.8609 -36.8582 -36.8582
   -36.8581 -36.8581 -36.8489 -36.8489 -36.8488 -36.8488 -36.8280 -36.8279
   -36.8279 -36.8278 -36.8256 -36.8255 -36.8255 -36.8254 -36.8182 -36.8181
   -36.8181 -36.8180 -36.8166 -36.8166 -36.8165 -36.8165 -36.8131 -36.8130
   -36.8130 -36.8129 -36.8115 -36.8114 -36.8114 -36.8113 -36.7925 -36.7883
   -36.7849 -36.7849 -36.7616 -36.7616 -36.7501 -36.7485 -36.7484 -36.7484
   -36.7482 -36.7427 -36.7427 -36.7426 -36.7426 -36.7316 -36.7316 -36.7315
   -36.7315 -36.7296 -36.7295 -36.7295 -36.7294 -36.7171 -36.7171 -36.7170
   -36.7170 -36.7137 -36.7136 -36.7136 -36.7135 -36.7043 -36.7043 -36.7042
   -36.7042 -36.6966 -36.6909 -36.6909 -36.6832 -36.6832 -36.6831 -36.6830
   -36.6779 -36.6779 -36.6778 -36.6778 -36.6714 -36.6713 -36.6713 -36.6711
   -36.6550 -36.6550 -36.6549 -36.6548 -36.6531 -36.6531 -36.6530 -36.6530
   -36.6436 -36.6436 -36.6315 -36.6314 -36.6314 -36.6312 -36.6237 -36.6235
   -36.6235 -36.6234 -36.6148 -36.6147 -36.6146 -36.6146 -36.6047 -36.6047
   -36.6046 -36.6046 -36.6023 -36.6022 -36.6022 -36.6021 -36.5917 -36.5910
   -36.5909 -36.5909 -36.5908 -36.5883 -36.5882 -36.5882 -36.5880 -36.5815
   -36.5814 -36.5814 -36.5813 -36.5736 -36.5735 -36.5735 -36.5734 -36.5714
   -36.5714 -36.5713 -36.5713 -36.5662 -36.5662 -36.5650 -36.5650 -36.5649
   -36.5649 -36.5557 -36.5457 -36.5457 -36.5453 -36.5451 -36.5451 -36.5450
   -36.5394 -36.5394 -36.5393 -36.5393 -36.5392 -36.5392 -36.5391 -36.5391
     9.4577  10.1760  11.4403  11.4403  11.4404  11.4404  11.9043  11.9043
    11.9046  11.9046  12.4551  12.5994  12.5997  12.5997  12.6001  12.7396
    12.7396  12.7399  12.7399  12.9641  12.9694  12.9895  12.9895  12.9897
    12.9897  13.1688  13.1691  13.1691  13.1696  13.2076  13.2642  13.2714
    13.4080  13.4081  13.4081  13.4082  13.4261  13.4261  13.4263  13.4263
    13.4687  13.4687  13.4690  13.4690  13.7667  13.7667  13.7667  13.7668
    13.7931  13.7932  13.7932  13.7932  13.8161  13.8162  13.8162  13.8162
    13.8542  13.8542  13.8542  13.8543  14.1602  14.1602  14.1603  14.1603
    14.2211  14.2212  14.2212  14.2212  14.2753  14.3084  14.3085  14.3085
    14.3086  14.3119  14.3120  14.3120  14.3120  14.3871  14.3872  14.3872
    14.3873  14.3971  14.3971  14.3972  14.3972  14.4040  14.4041  14.4041
    14.4042  14.5100  14.5100  14.5101  14.5101  14.6202  14.6204  14.6204
    14.6206  14.6220  14.6221  14.6221  14.6222  14.6366  14.6368  14.6368
    14.6369  14.6799  14.6799  14.6799  14.6799  14.6868  14.6868  14.6869
    14.6869  14.7262  14.7264  14.7264  14.7266  14.7602  14.7604  14.7604
    14.7606  14.8965  15.0186  15.0186  15.0188  15.0188  15.0921  15.0921
    15.0923  15.0923  15.1044  15.1044  15.1045  15.1045  15.1852  15.1852
    15.1852  15.1852  15.2048  15.2048  15.2314  15.2314  15.2932  15.2973
    15.2973  15.2973  15.2973  15.3409  15.3409  15.3411  15.3411  15.4783
    15.4783  15.4823  15.7478  15.7478  15.7480  15.7480  15.7809  15.7809
    15.7985  15.7985  15.7987  15.7987  15.8635  15.8636  15.8636  15.8636
    15.9695  16.0357  16.0357  16.0357  16.0357  16.0880  16.0880  16.0882
    16.0882  16.1362  16.1536  16.1536  16.1536  16.1536  16.1588  16.1588
    16.1589  16.1589  16.2423  16.2424  16.2424  16.2425  16.2567  16.2567
    16.2568  16.2569  16.2749  16.3424  16.3425  16.3425  16.3426  16.4032
    16.4032  16.4033  16.4033  16.4284  16.4285  16.4285  16.4287  16.4304
    16.4832  16.4833  16.4833  16.4834  16.5179  16.5180  16.5180  16.5181
    16.5224  16.5226  16.5226  16.5227  16.5245  16.5246  16.5246  16.5247
    16.5278  16.5431  16.5432  16.5432  16.5433  16.5517  16.5645  16.5645
    16.5646  16.5646  16.5998  16.5999  16.5999  16.6002  16.6347  16.6347
    16.6348  16.6348  16.6703  16.6704  16.6704  16.6706  16.7502  16.7502
    16.7502  16.7502  16.8137  16.8137  16.9414  16.9415  16.9415  16.9416
    17.1783  17.1784  17.1786  17.1786  17.2177  17.2177  17.2179  17.2179
    17.2203  17.2343  17.3188  17.3188  17.3549  17.3549  17.3550  17.3550
    17.3769  17.3770  17.3770  17.3771  17.4187  17.4903  17.4903  17.4903
    17.4904  17.5303  17.5303  17.5305  17.5305  17.5919  17.5919  17.5920
    17.5920  18.2628  18.3697  18.3700  18.3700  18.3702  18.9275  18.9275
    18.9282  18.9282  20.5548  20.5554  20.5558  20.5569

          k = 0.0000 0.3333 0.3333 ( 21886 PWs)   bands (ev):

   -70.7514 -70.7407 -70.7407 -70.7316 -70.7223 -70.7222 -70.7161 -70.7161
   -70.7160 -70.7160 -70.7111 -70.7110 -70.7056 -70.7056 -70.7025 -70.7025
   -70.6975 -70.6975 -70.6974 -70.6974 -70.6953 -70.6953 -70.6952 -70.6952
   -70.6940 -70.6904 -70.6899 -70.6898 -70.6880 -70.6880 -70.6880 -70.6879
   -70.6879 -70.6879 -70.6875 -70.6875 -70.6874 -70.6874 -70.6869 -70.6869
   -70.6866 -70.6866 -70.6766 -70.6765 -70.6742 -70.6742 -70.6741 -70.6741
   -70.6707 -70.6707 -70.6628 -70.6561 -70.6561 -70.6478 -36.8981 -36.8921
   -36.8711 -36.8711 -36.8710 -36.8710 -36.8518 -36.8518 -36.8517 -36.8517
   -36.8462 -36.8462 -36.8461 -36.8461 -36.8445 -36.8445 -36.8444 -36.8444
   -36.8409 -36.8388 -36.8388 -36.8387 -36.8387 -36.8378 -36.8378 -36.8271
   -36.8270 -36.8232 -36.8231 -36.8146 -36.8145 -36.8127 -36.8127 -36.8058
   -36.8042 -36.8042 -36.8033 -36.8032 -36.7886 -36.7885 -36.7874 -36.7874
   -36.7774 -36.7671 -36.7609 -36.7608 -36.7556 -36.7556 -36.7545 -36.7545
   -36.7545 -36.7544 -36.7475 -36.7442 -36.7442 -36.7394 -36.7392 -36.7382
   -36.7382 -36.7380 -36.7380 -36.7379 -36.7379 -36.7141 -36.7140 -36.7099
   -36.7099 -36.7098 -36.7098 -36.7081 -36.7080 -36.6986 -36.6925 -36.6911
   -36.6911 -36.6859 -36.6859 -36.6858 -36.6857 -36.6851 -36.6851 -36.6841
   -36.6840 -36.6771 -36.6770 -36.6657 -36.6616 -36.6616 -36.6614 -36.6614
   -36.6578 -36.6575 -36.6575 -36.6573 -36.6573 -36.6572 -36.6572 -36.6501
   -36.6501 -36.6459 -36.6459 -36.6365 -36.6365 -36.6364 -36.6364 -36.6325
   -36.6325 -36.6232 -36.6230 -36.6102 -36.6101 -36.6094 -36.6094 -36.6093
   -36.6093 -36.6077 -36.6077 -36.6047 -36.6045 -36.6027 -36.6026 -36.6026
   -36.6025 -36.6022 -36.6022 -36.5894 -36.5825 -36.5743 -36.5743 -36.5711
   -36.5711 -36.5710 -36.5710 -36.5698 -36.5698 -36.5697 -36.5697 -36.5651
   -36.5651 -36.5649 -36.5649 -36.5645 -36.5645 -36.5633 -36.5632 -36.5605
   -36.5604 -36.5530 -36.5472 -36.5472 -36.5471 -36.5471 -36.5458 -36.5458
   -36.5438 -36.5438 -36.5437 -36.5436 -36.5396 -36.5334 -36.5310 -36.5288
     9.7028  10.3993  10.3993  11.0300  11.6303  11.6304  12.1076  12.1076
    12.1078  12.1078  12.5586  12.5586  12.6336  12.6339  12.7175  12.7176
    12.7237  12.8010  12.9196  12.9196  12.9198  12.9198  13.0446  13.0777
    13.1548  13.1548  13.1549  13.1549  13.2261  13.2261  13.2929  13.2929
    13.3120  13.3121  13.3568  13.3568  13.3857  13.3962  13.3962  13.3964
    13.3964  13.5488  13.5488  13.5488  13.5488  13.5882  13.5882  13.5883
    13.5883  13.5940  13.5944  13.7014  13.7861  13.7862  13.8480  13.8480
    13.9068  13.9069  14.0125  14.0126  14.0398  14.0399  14.1327  14.1327
    14.1329  14.1329  14.1384  14.1387  14.2248  14.2250  14.2540  14.2541
    14.2541  14.2541  14.2541  14.2834  14.2834  14.2835  14.2835  14.2887
    14.2887  14.2897  14.3400  14.3400  14.3400  14.3400  14.4327  14.4327
    14.4327  14.4327  14.4717  14.4720  14.5610  14.5611  14.6251  14.6251
    14.6253  14.6253  14.6268  14.6269  14.6695  14.6697  14.7109  14.7110
    14.7800  14.7801  14.8069  14.8360  14.8364  14.8691  14.8693  14.8919
    14.8919  14.8921  14.8921  14.8949  14.8952  14.9232  14.9232  14.9672
    14.9673  14.9732  14.9732  14.9979  14.9979  14.9980  14.9980  15.0108
    15.0109  15.0166  15.0166  15.0167  15.0167  15.0239  15.0239  15.0240
    15.0240  15.0835  15.1119  15.1485  15.1485  15.1566  15.1566  15.2195
    15.2751  15.2751  15.2752  15.2752  15.4239  15.4239  15.4600  15.4914
    15.4914  15.5342  15.5342  15.5344  15.5344  15.7445  15.7445  15.7535
    15.7535  15.8259  15.8712  15.8712  15.9176  15.9178  16.0726  16.0726
    16.0757  16.0757  16.1326  16.1358  16.1528  16.1529  16.1858  16.1858
    16.1859  16.1859  16.1973  16.2689  16.2746  16.2746  16.2746  16.2746
    16.2768  16.3088  16.3089  16.3090  16.3090  16.3140  16.3142  16.3339
    16.3340  16.3747  16.3748  16.3781  16.3781  16.3782  16.3782  16.3828
    16.3949  16.4123  16.4297  16.4297  16.4348  16.4348  16.4349  16.4350
    16.4352  16.4359  16.4359  16.4360  16.4360  16.4621  16.4622  16.4959
    16.4959  16.5228  16.5229  16.5382  16.5383  16.5653  16.5654  16.5675
    16.5838  16.5840  16.5876  16.5877  16.5960  16.5961  16.5961  16.5961
    16.6257  16.6259  16.6314  16.6314  16.6398  16.6398  16.6399  16.6400
    16.7364  16.7364  16.7585  16.7585  16.7586  16.7586  16.8187  16.8187
    16.8188  16.8188  16.8393  16.8393  16.9453  16.9453  16.9543  16.9543
    16.9543  16.9544  16.9791  17.0119  17.0120  17.0841  17.1937  17.1939
    17.2020  17.2021  17.2021  17.2021  17.2124  17.2125  17.2232  17.2232
    17.2927  17.2927  17.3098  17.3098  17.3099  17.3100  17.4532  17.4532
    17.4770  17.5331  17.5713  17.5997  17.5998  17.6261  17.7130  18.2507
    18.2508  18.2510  18.2510  18.3974  18.3975  18.4882  18.7271  18.7272
    19.3697  19.3698  19.3703  19.3704  19.6092  19.6094

          k = 0.3333 0.3333 0.3333 ( 21842 PWs)   bands (ev):

   -70.7477 -70.7376 -70.7376 -70.7376 -70.7289 -70.7289 -70.7289 -70.7215
   -70.7045 -70.7045 -70.7045 -70.7014 -70.7014 -70.7014 -70.7014 -70.7014
   -70.7014 -70.6988 -70.6988 -70.6988 -70.6934 -70.6934 -70.6934 -70.6917
   -70.6917 -70.6917 -70.6901 -70.6901 -70.6901 -70.6890 -70.6890 -70.6890
   -70.6881 -70.6875 -70.6869 -70.6869 -70.6869 -70.6869 -70.6869 -70.6869
   -70.6869 -70.6869 -70.6869 -70.6865 -70.6865 -70.6865 -70.6688 -70.6643
   -70.6643 -70.6643 -70.6582 -70.6582 -70.6582 -70.6505 -36.8889 -36.8889
   -36.8889 -36.8824 -36.8824 -36.8824 -36.8564 -36.8564 -36.8564 -36.8529
   -36.8529 -36.8529 -36.8390 -36.8390 -36.8390 -36.8390 -36.8390 -36.8390
   -36.8387 -36.8387 -36.8387 -36.8294 -36.8294 -36.8294 -36.8208 -36.8208
   -36.8208 -36.8131 -36.8131 -36.8131 -36.8039 -36.8039 -36.8039 -36.8039
   -36.8039 -36.8039 -36.8019 -36.8019 -36.8016 -36.8016 -36.8016 -36.7981
   -36.7981 -36.7770 -36.7770 -36.7770 -36.7671 -36.7671 -36.7671 -36.7637
   -36.7637 -36.7637 -36.7633 -36.7443 -36.7434 -36.7434 -36.7360 -36.7128
   -36.7128 -36.7128 -36.7089 -36.7089 -36.7089 -36.7047 -36.7047 -36.7047
   -36.6974 -36.6974 -36.6974 -36.6974 -36.6974 -36.6974 -36.6942 -36.6942
   -36.6942 -36.6895 -36.6895 -36.6895 -36.6820 -36.6820 -36.6767 -36.6767
   -36.6767 -36.6751 -36.6751 -36.6751 -36.6714 -36.6714 -36.6714 -36.6638
   -36.6638 -36.6638 -36.6587 -36.6587 -36.6586 -36.6559 -36.6559 -36.6559
   -36.6498 -36.6498 -36.6498 -36.6498 -36.6498 -36.6498 -36.6471 -36.6471
   -36.6471 -36.6399 -36.6398 -36.6321 -36.6321 -36.6321 -36.6053 -36.5938
   -36.5938 -36.5938 -36.5938 -36.5938 -36.5937 -36.5919 -36.5919 -36.5919
   -36.5812 -36.5812 -36.5812 -36.5807 -36.5807 -36.5807 -36.5722 -36.5722
   -36.5722 -36.5708 -36.5708 -36.5675 -36.5675 -36.5675 -36.5665 -36.5665
   -36.5665 -36.5629 -36.5629 -36.5629 -36.5600 -36.5600 -36.5600 -36.5600
   -36.5600 -36.5600 -36.5504 -36.5504 -36.5504 -36.5441 -36.5441 -36.5441
   -36.5441 -36.5441 -36.5441 -36.5412 -36.5412 -36.5412 -36.5404 -36.5404
     9.9428  10.6248  10.6248  10.6248  11.2470  11.2470  11.2470  11.8461
    12.6837  12.6837  12.6837  12.8915  12.8915  12.8915  12.8928  12.8928
    12.8928  12.8929  12.8929  12.8929  12.9583  12.9583  12.9583  13.1513
    13.1513  13.2629  13.2629  13.2629  13.3493  13.3493  13.3493  13.3860
    13.3860  13.3860  13.3860  13.3860  13.3860  13.3939  13.3939  13.3939
    13.4022  13.4022  13.4023  13.4043  13.4043  13.4043  13.4175  13.4175
    13.4175  13.5324  13.5324  13.5324  13.6626  13.6626  13.6626  13.7549
    13.7549  13.7549  13.8880  13.8880  14.0670  14.1618  14.1618  14.1618
    14.1967  14.1967  14.1967  14.2006  14.2006  14.2006  14.2157  14.2157
    14.2211  14.2211  14.2211  14.2372  14.2373  14.2373  14.2420  14.2420
    14.2420  14.3435  14.3435  14.3435  14.3999  14.3999  14.3999  14.4000
    14.4000  14.4000  14.4569  14.4569  14.5169  14.5408  14.5408  14.5408
    14.5408  14.5408  14.5408  14.6200  14.6200  14.6210  14.6210  14.6210
    14.7387  14.7387  14.7387  14.7940  14.7940  14.7940  14.8294  14.8836
    14.8836  14.8836  14.8954  14.8954  14.8954  14.9635  14.9635  14.9635
    14.9678  14.9678  14.9678  14.9678  14.9678  14.9678  14.9683  14.9683
    14.9683  14.9683  14.9683  14.9683  14.9927  14.9927  14.9927  15.0787
    15.0787  15.1104  15.1104  15.1104  15.2823  15.2823  15.2823  15.3927
    15.3927  15.3927  15.4664  15.4664  15.4664  15.5035  15.5035  15.5035
    15.6806  15.8156  15.8156  15.8156  15.9513  15.9513  15.9513  15.9547
    15.9547  15.9547  15.9762  15.9762  15.9762  15.9891  15.9891  15.9891
    16.1365  16.1365  16.1365  16.1365  16.1365  16.1366  16.1412  16.1412
    16.1412  16.1412  16.1412  16.1412  16.1479  16.1479  16.1479  16.2529
    16.2529  16.2529  16.2728  16.2728  16.2728  16.2925  16.2925  16.2925
    16.3404  16.3404  16.3533  16.3533  16.3533  16.3839  16.3839  16.4119
    16.4119  16.4119  16.4349  16.4349  16.4349  16.4372  16.4373  16.4373
    16.4657  16.4657  16.4657  16.4975  16.4975  16.4975  16.5073  16.5211
    16.5211  16.5211  16.5232  16.5232  16.5232  16.5735  16.5735  16.5735
    16.5884  16.5884  16.5884  16.6041  16.6041  16.6138  16.6138  16.6139
    16.6217  16.6217  16.6602  16.6602  16.6602  16.6925  16.6926  16.6926
    16.7117  16.7117  16.7117  16.8196  16.8196  16.8196  16.8196  16.8196
    16.8196  16.8400  16.8401  16.8401  16.8947  16.8947  16.8947  16.9334
    16.9334  16.9334  16.9337  16.9337  16.9913  17.0593  17.0594  17.0594
    17.0974  17.0974  17.0974  17.0974  17.0974  17.0975  17.3217  17.3217
    17.3290  17.3290  17.3291  17.3703  17.3703  17.3704  17.3721  17.3721
    17.3721  17.7239  17.7239  17.7239  17.7239  17.7239  17.7239  18.5049
    18.5049  18.5049  18.6328  18.6328  18.6328  18.8644  18.8644  18.8644
    19.1534  19.1534  19.1534  19.1535  19.1535  19.1535

 ------ SPIN DOWN ----------


          k = 0.0000 0.0000 0.0000 ( 21879 PWs)   bands (ev):

   -67.7364 -67.7005 -67.7004 -67.7004 -67.7004 -67.7004 -67.7004 -67.6806
   -67.6806 -67.6806 -67.6805 -67.6805 -67.6805 -67.6805 -67.6805 -67.6805
   -67.6805 -67.6805 -67.6805 -67.6689 -67.6688 -67.6688 -67.6688 -67.6687
   -67.6687 -67.6687 -67.6687 -67.6526 -67.6525 -67.6525 -67.6525 -67.6524
   -67.6524 -67.6524 -67.6524 -67.6482 -67.6481 -67.6481 -67.6481 -67.6481
   -67.6481 -67.6481 -67.6481 -67.6481 -67.6480 -67.6480 -67.6480 -67.6357
   -67.6357 -67.6357 -67.6356 -67.6356 -67.6356 -67.6069 -33.9746 -33.9746
   -33.9746 -33.9745 -33.9745 -33.9745 -33.9745 -33.9745 -33.9745 -33.9744
   -33.9744 -33.9744 -33.9154 -33.9153 -33.9153 -33.9153 -33.9152 -33.9152
   -33.9152 -33.9152 -33.8960 -33.8960 -33.8960 -33.8960 -33.8960 -33.8960
   -33.8960 -33.8960 -33.8960 -33.8959 -33.8959 -33.8959 -33.8884 -33.8884
   -33.8884 -33.8724 -33.8724 -33.8723 -33.8723 -33.8723 -33.8723 -33.8723
   -33.8723 -33.8723 -33.8723 -33.8723 -33.8722 -33.8722 -33.8722 -33.8722
   -33.8722 -33.8704 -33.8704 -33.8704 -33.8703 -33.8703 -33.8703 -33.8093
   -33.8093 -33.8093 -33.8092 -33.8092 -33.8092 -33.8092 -33.8092 -33.8092
   -33.8092 -33.8092 -33.8092 -33.7729 -33.7729 -33.7729 -33.7728 -33.7728
   -33.7728 -33.7728 -33.7728 -33.7728 -33.7728 -33.7728 -33.7728 -33.6973
   -33.6973 -33.6972 -33.6972 -33.6972 -33.6972 -33.6938 -33.6938 -33.6938
   -33.6937 -33.6937 -33.6937 -33.6937 -33.6937 -33.6937 -33.6936 -33.6936
   -33.6936 -33.6824 -33.6824 -33.6824 -33.6824 -33.6824 -33.6824 -33.6824
   -33.6824 -33.6823 -33.6823 -33.6823 -33.6823 -33.6823 -33.6823 -33.6822
   -33.6822 -33.6661 -33.6661 -33.6661 -33.6661 -33.6661 -33.6661 -33.6661
   -33.6661 -33.6661 -33.6660 -33.6660 -33.6660 -33.6580 -33.6580 -33.6580
   -33.6580 -33.6580 -33.6580 -33.6579 -33.6579 -33.6579 -33.6579 -33.6579
   -33.6579 -33.6374 -33.6374 -33.6374 -33.6374 -33.6373 -33.6373 -33.6373
   -33.6372 -33.5822 -33.5822 -33.5822 -33.5821 -33.5821 -33.5821 -33.5821
   -33.5821 -33.5821 -33.5820 -33.5820 -33.5820 -33.5805 -33.5805 -33.5805
     9.3487  11.4562  11.4563  11.4563  11.4566  11.4566  11.4566  13.0098
    13.0098  13.0098  13.0100  13.0100  13.0100  13.0100  13.0100  13.0100
    13.0102  13.0103  13.0103  14.5491  14.5496  14.5496  14.5496  14.5501
    14.5501  14.5501  14.5507  14.7791  14.7791  14.8277  14.8277  14.8277
    14.8280  14.8280  14.8280  14.8280  14.8280  14.8280  14.8284  14.8284
    14.8284  14.8602  14.8602  14.8602  14.8613  14.8613  14.8614  15.6865
    15.6867  15.6867  15.6867  15.6869  15.6869  15.6869  15.6871  15.8494
    15.8494  15.8494  15.8495  15.8495  15.8495  16.0932  16.0932  16.0932
    16.0934  16.0934  16.0934  16.0935  16.0935  16.0940  16.0940  16.0941
    16.0941  16.0941  16.0943  16.0943  16.0943  16.1129  16.1129  16.1132
    16.1132  16.1132  16.1136  16.1136  16.1136  16.1137  16.1137  16.1137
    16.1140  16.1140  16.1140  16.1143  16.1143  16.4846  16.4846  16.4846
    16.4853  16.4853  16.4853  16.4853  16.4853  16.4853  16.4859  16.4859
    16.4859  16.5108  16.5108  16.5108  16.5109  16.5109  16.5109  16.5109
    16.5109  16.5109  16.5110  16.5110  16.5110  16.8827  16.8827  16.8827
    16.8828  16.8828  16.8828  16.8828  16.8828  16.8828  16.8828  16.8828
    16.8828  17.0220  17.0220  17.0220  17.0223  17.0223  17.0223  17.0223
    17.0223  17.0223  17.0226  17.0226  17.0226  17.4939  17.4939  17.4939
    17.4939  17.4939  17.4939  17.4942  17.4942  17.4942  17.4942  17.4942
    17.4942  17.5000  17.5000  17.5000  18.0962  18.0962  18.0962  18.0964
    18.0964  18.0964  18.1660  18.1660  18.1660  18.1662  18.1662  18.1662
    18.4881  18.4881  18.4881  18.4881  18.4881  18.4881  18.4882  18.4882
    18.4882  18.4882  18.4882  18.4882  18.6165  18.6165  18.6165  18.6166
    18.6166  18.6166  18.6166  18.6166  18.6166  18.6167  18.6167  18.6167
    19.1346  19.1346  19.1346  19.1348  19.1348  19.1348  19.1348  19.1348
    19.1348  19.1350  19.1350  19.1350  19.3922  19.3922  19.4027  19.4027
    19.4027  19.4030  19.4030  19.4030  19.4501  19.4501  19.4503  19.4503
    19.4503  19.4504  19.4504  19.4504  19.4505  19.4505  19.4505  19.4505
    19.4505  19.4505  19.4507  19.4507  19.5040  19.5040  19.5040  19.5041
    19.5041  19.5041  19.5041  19.5041  19.5041  19.5043  19.5043  19.5043
    19.5070  19.5070  19.5072  19.5072  19.5072  19.5072  19.5072  19.5072
    19.5073  19.5073  19.5073  19.5074  19.5074  19.5074  19.5076  19.5076
    19.5681  19.5681  19.5681  19.5683  19.5683  19.5683  19.5683  19.5683
    19.5683  19.5685  19.5685  19.5685  19.8374  19.8374  19.8375  19.8376
    19.8376  19.8376  20.0553  20.0553  20.0553  20.2725  20.2725  20.2725
    20.2726  20.2726  20.2726  20.2727  20.2727  20.2727  20.2728  20.2728
    20.2728  21.3983  21.3986  21.3986  21.3986  21.3989  21.3989  21.3989
    21.3992  21.7112  21.7112  21.7112  21.7119  21.7119

          k = 0.0000 0.0000 0.3333 ( 21891 PWs)   bands (ev):

   -67.7321 -67.7194 -67.6980 -67.6980 -67.6979 -67.6979 -67.6909 -67.6908
   -67.6908 -67.6908 -67.6791 -67.6790 -67.6790 -67.6790 -67.6783 -67.6748
   -67.6747 -67.6747 -67.6747 -67.6689 -67.6689 -67.6688 -67.6688 -67.6624
   -67.6623 -67.6623 -67.6623 -67.6576 -67.6576 -67.6576 -67.6576 -67.6567
   -67.6567 -67.6567 -67.6566 -67.6558 -67.6499 -67.6498 -67.6498 -67.6498
   -67.6485 -67.6484 -67.6484 -67.6484 -67.6412 -67.6412 -67.6411 -67.6411
   -67.6371 -67.6371 -67.6370 -67.6370 -67.6200 -67.6101 -33.9789 -33.9789
   -33.9788 -33.9788 -33.9571 -33.9570 -33.9570 -33.9569 -33.9534 -33.9533
   -33.9533 -33.9533 -33.9427 -33.9426 -33.9426 -33.9426 -33.9199 -33.9198
   -33.9198 -33.9197 -33.9164 -33.9163 -33.9163 -33.9162 -33.9081 -33.9080
   -33.9080 -33.9079 -33.9044 -33.9044 -33.9043 -33.9043 -33.9026 -33.9025
   -33.9025 -33.9024 -33.9008 -33.9007 -33.9007 -33.9006 -33.8781 -33.8738
   -33.8689 -33.8689 -33.8424 -33.8424 -33.8310 -33.8286 -33.8285 -33.8285
   -33.8285 -33.8246 -33.8246 -33.8246 -33.8246 -33.8078 -33.8077 -33.8077
   -33.8076 -33.8068 -33.8068 -33.8067 -33.8067 -33.7908 -33.7908 -33.7907
   -33.7907 -33.7880 -33.7880 -33.7880 -33.7879 -33.7763 -33.7763 -33.7762
   -33.7762 -33.7719 -33.7616 -33.7616 -33.7564 -33.7564 -33.7564 -33.7564
   -33.7463 -33.7463 -33.7463 -33.7463 -33.7417 -33.7417 -33.7417 -33.7416
   -33.7209 -33.7209 -33.7208 -33.7208 -33.7187 -33.7187 -33.7187 -33.7187
   -33.7089 -33.7089 -33.6952 -33.6951 -33.6951 -33.6950 -33.6879 -33.6878
   -33.6878 -33.6877 -33.6764 -33.6764 -33.6763 -33.6763 -33.6651 -33.6651
   -33.6650 -33.6650 -33.6640 -33.6640 -33.6640 -33.6639 -33.6521 -33.6509
   -33.6508 -33.6508 -33.6507 -33.6481 -33.6480 -33.6480 -33.6479 -33.6400
   -33.6399 -33.6399 -33.6398 -33.6312 -33.6312 -33.6312 -33.6311 -33.6284
   -33.6284 -33.6283 -33.6283 -33.6222 -33.6222 -33.6219 -33.6219 -33.6218
   -33.6218 -33.6102 -33.5991 -33.5991 -33.5991 -33.5990 -33.5990 -33.5990
   -33.5935 -33.5935 -33.5935 -33.5935 -33.5931 -33.5931 -33.5930 -33.5930
     9.5935  10.3237  11.6586  11.6586  11.6589  11.6589  12.2271  12.2272
    12.2272  12.2272  12.8290  13.2152  13.2154  13.2154  13.2157  13.7790
    13.7790  13.7794  13.7795  13.7932  13.7935  13.7935  13.7939  14.1207
    14.3806  14.3806  14.3810  14.3810  14.8739  14.9292  14.9620  14.9620
    14.9630  14.9630  14.9958  15.0144  15.0148  15.0148  15.0151  15.0635
    15.0635  15.0641  15.0641  15.1330  15.1333  15.1333  15.1337  15.2945
    15.4295  15.4295  15.4295  15.4296  15.4399  15.4400  15.4400  15.4402
    15.8507  15.8507  15.8507  15.8507  15.9900  15.9901  15.9901  15.9902
    15.9993  15.9996  15.9996  15.9998  16.0106  16.0106  16.0110  16.0110
    16.1521  16.1523  16.1523  16.1524  16.2641  16.2642  16.2642  16.2642
    16.2798  16.2800  16.2800  16.2802  16.2936  16.2939  16.2939  16.2942
    16.2977  16.2983  16.2983  16.2988  16.3704  16.3708  16.3708  16.3712
    16.4192  16.4192  16.4193  16.4193  16.4238  16.4239  16.4239  16.4240
    16.4378  16.4384  16.4384  16.4390  16.5386  16.5386  16.5386  16.5386
    16.5793  16.6947  16.6948  16.6948  16.6949  16.7741  16.7741  16.7743
    16.7743  16.7833  16.7836  16.7836  16.7839  16.9902  16.9902  16.9906
    16.9907  17.0414  17.0414  17.0418  17.0418  17.1474  17.1474  17.1475
    17.1475  17.1613  17.1613  17.1616  17.1616  17.2565  17.2565  17.2569
    17.2569  17.3834  17.4242  17.4242  17.4243  17.4243  17.4311  17.4311
    17.4322  17.4322  17.5397  17.6376  17.6376  17.7555  17.9610  17.9610
    18.0685  18.0685  18.0686  18.0686  18.4083  18.4083  18.4083  18.4083
    18.4238  18.4238  18.4239  18.4239  18.4382  18.4382  18.4384  18.4384
    18.4526  18.4526  18.4528  18.4528  18.5068  18.8087  18.8135  18.8136
    18.8136  18.8137  18.8945  18.8945  18.8947  18.8947  18.9188  18.9188
    18.9189  18.9189  18.9600  18.9860  18.9860  18.9862  18.9862  19.1038
    19.1038  19.1040  19.1040  19.1549  19.1551  19.1551  19.1552  19.1730
    19.1732  19.1732  19.1734  19.1734  19.1734  19.2259  19.3344  19.3346
    19.3346  19.3348  19.4324  19.4325  19.4327  19.4327  19.4329  19.4705
    19.4707  19.4707  19.4709  19.5430  19.5432  19.5432  19.5434  19.5518
    19.5520  19.5520  19.5522  19.5792  19.6142  19.6144  19.6144  19.6146
    19.6234  19.6236  19.6236  19.6238  19.6326  19.6328  19.6328  19.6330
    19.6367  19.6367  19.6368  19.6368  19.7085  19.7085  19.7087  19.7087
    19.7569  19.7570  19.7571  19.7571  19.7777  19.7850  19.7850  19.7852
    19.7852  19.8273  19.8273  19.8451  19.8452  19.8452  19.8453  19.9168
    19.9168  19.9170  19.9170  19.9777  19.9779  19.9779  19.9781  19.9968
    20.0478  20.1230  20.1230  20.1232  20.1232  20.2001  20.2001  20.2002
    20.2002  20.5334  20.5812  20.5813  20.5813  20.5813  20.6527  20.6527
    20.6527  20.6527  21.9449  21.9449  21.9456  21.9457

          k = 0.0000 0.3333 0.3333 ( 21886 PWs)   bands (ev):

   -67.7278 -67.7158 -67.7158 -67.7057 -67.6956 -67.6955 -67.6888 -67.6888
   -67.6887 -67.6887 -67.6831 -67.6830 -67.6770 -67.6770 -67.6736 -67.6736
   -67.6680 -67.6680 -67.6679 -67.6679 -67.6655 -67.6655 -67.6655 -67.6655
   -67.6641 -67.6601 -67.6594 -67.6594 -67.6574 -67.6574 -67.6574 -67.6574
   -67.6573 -67.6573 -67.6569 -67.6569 -67.6568 -67.6568 -67.6563 -67.6563
   -67.6559 -67.6558 -67.6449 -67.6448 -67.6421 -67.6421 -67.6421 -67.6421
   -67.6383 -67.6382 -67.6296 -67.6224 -67.6224 -67.6133 -33.9985 -33.9915
   -33.9677 -33.9676 -33.9676 -33.9676 -33.9463 -33.9463 -33.9462 -33.9462
   -33.9393 -33.9393 -33.9392 -33.9392 -33.9371 -33.9370 -33.9370 -33.9370
   -33.9327 -33.9315 -33.9315 -33.9315 -33.9315 -33.9302 -33.9302 -33.9180
   -33.9179 -33.9122 -33.9121 -33.9038 -33.9037 -33.9013 -33.9013 -33.8929
   -33.8924 -33.8924 -33.8913 -33.8912 -33.8745 -33.8745 -33.8728 -33.8728
   -33.8606 -33.8484 -33.8422 -33.8422 -33.8377 -33.8377 -33.8376 -33.8376
   -33.8355 -33.8355 -33.8247 -33.8244 -33.8244 -33.8170 -33.8170 -33.8154
   -33.8154 -33.8151 -33.8150 -33.8150 -33.8150 -33.7906 -33.7906 -33.7847
   -33.7847 -33.7846 -33.7846 -33.7844 -33.7843 -33.7702 -33.7655 -33.7613
   -33.7613 -33.7564 -33.7564 -33.7563 -33.7563 -33.7562 -33.7562 -33.7547
   -33.7547 -33.7451 -33.7450 -33.7332 -33.7307 -33.7307 -33.7306 -33.7306
   -33.7243 -33.7242 -33.7242 -33.7241 -33.7241 -33.7241 -33.7241 -33.7153
   -33.7153 -33.7110 -33.7110 -33.6999 -33.6999 -33.6998 -33.6998 -33.6976
   -33.6976 -33.6876 -33.6875 -33.6721 -33.6720 -33.6712 -33.6712 -33.6711
   -33.6711 -33.6694 -33.6694 -33.6679 -33.6678 -33.6635 -33.6635 -33.6634
   -33.6634 -33.6629 -33.6628 -33.6480 -33.6408 -33.6309 -33.6308 -33.6288
   -33.6288 -33.6287 -33.6287 -33.6275 -33.6275 -33.6274 -33.6274 -33.6220
   -33.6220 -33.6219 -33.6219 -33.6217 -33.6217 -33.6198 -33.6197 -33.6165
   -33.6165 -33.6071 -33.6021 -33.6021 -33.6020 -33.6020 -33.5995 -33.5995
   -33.5984 -33.5984 -33.5983 -33.5983 -33.5939 -33.5861 -33.5839 -33.5821
     9.8414  10.5548  10.5548  11.2228  11.8656  11.8658  12.4364  12.4365
    12.4365  12.4365  12.9866  12.9867  13.0121  13.0123  13.3778  13.3779
    13.9750  13.9750  13.9755  13.9755  14.0375  14.2231  14.2255  14.2256
    14.4001  14.4001  14.5067  14.5067  14.5071  14.5071  14.5625  14.5625
    14.5629  14.5629  14.9897  14.9995  15.0181  15.0181  15.0183  15.0184
    15.0870  15.0880  15.1215  15.1215  15.2290  15.2290  15.2295  15.2295
    15.2777  15.3376  15.3376  15.3951  15.3954  15.4493  15.4495  15.5467
    15.6065  15.6069  15.8519  15.8520  15.9149  15.9152  15.9281  15.9288
    15.9545  15.9551  15.9794  15.9794  15.9797  15.9797  16.1444  16.1444
    16.1447  16.1447  16.1525  16.1525  16.1527  16.1527  16.2368  16.2376
    16.2497  16.2875  16.3306  16.3306  16.3307  16.3307  16.3405  16.3413
    16.4123  16.4123  16.4124  16.4124  16.4597  16.4602  16.4802  16.4802
    16.4805  16.4805  16.4814  16.4814  16.5020  16.5020  16.5193  16.5194
    16.5706  16.5706  16.5707  16.5707  16.6006  16.6009  16.6873  16.6873
    16.6876  16.6876  16.7826  16.7826  16.8456  16.8456  16.8460  16.8460
    16.8463  16.8463  16.8762  16.8762  16.8766  16.8766  16.9210  16.9210
    16.9211  16.9211  16.9301  17.0057  17.0057  17.0115  17.0119  17.0134
    17.0134  17.0569  17.0572  17.0824  17.0824  17.0826  17.0826  17.1688
    17.1819  17.1819  17.2797  17.2797  17.3148  17.3342  17.3342  17.4314
    17.5736  17.5736  17.6264  17.6265  17.6976  17.7296  17.7710  18.0292
    18.0492  18.0492  18.1304  18.1304  18.1587  18.1587  18.4969  18.5455
    18.5594  18.5594  18.6245  18.6247  18.6672  18.6672  18.7060  18.7060
    18.7087  18.7087  18.7088  18.7088  18.7302  18.7302  18.7448  18.7450
    18.8692  18.8692  18.9185  18.9185  18.9400  18.9401  18.9729  18.9729
    18.9731  18.9731  19.0029  19.0029  19.0031  19.0031  19.0421  19.0671
    19.0671  19.1398  19.1398  19.1400  19.1400  19.1634  19.1793  19.1795
    19.2144  19.2144  19.2146  19.2146  19.2177  19.2547  19.2904  19.2904
    19.2906  19.2906  19.2955  19.2955  19.2957  19.2957  19.3083  19.3083
    19.3867  19.4046  19.4317  19.4318  19.4393  19.5110  19.5110  19.5164
    19.5359  19.5361  19.5535  19.5537  19.5554  19.5556  19.6087  19.6088
    19.6290  19.6337  19.6337  19.6338  19.6338  19.6429  19.6430  19.6432
    19.6432  19.6506  19.6509  19.6550  19.6550  19.6552  19.6552  19.6583
    19.6585  19.6713  19.6713  19.6715  19.6715  19.7225  19.7226  19.7254
    19.7256  19.8395  19.8395  19.8563  19.8563  19.8565  19.8565  19.8767
    19.8767  19.8769  19.8769  19.9166  19.9167  19.9446  19.9446  20.0162
    20.0162  20.0305  20.0305  20.0702  20.1283  20.1796  20.2402  20.3445
    20.4490  20.4490  20.4491  20.4491  20.5995  20.5995  20.7437  20.7437
    21.3519  21.3520  21.3520  21.3521  21.3522  21.3522

          k = 0.3333 0.3333 0.3333 ( 21842 PWs)   bands (ev):

   -67.7237 -67.7124 -67.7124 -67.7124 -67.7029 -67.7029 -67.7029 -67.6948
   -67.6758 -67.6758 -67.6758 -67.6725 -67.6724 -67.6724 -67.6724 -67.6724
   -67.6724 -67.6695 -67.6695 -67.6695 -67.6634 -67.6634 -67.6634 -67.6616
   -67.6616 -67.6616 -67.6597 -67.6597 -67.6597 -67.6586 -67.6585 -67.6585
   -67.6576 -67.6569 -67.6563 -67.6563 -67.6563 -67.6563 -67.6562 -67.6562
   -67.6562 -67.6562 -67.6562 -67.6559 -67.6559 -67.6559 -67.6364 -67.6313
   -67.6313 -67.6313 -67.6247 -67.6247 -67.6247 -67.6162 -33.9877 -33.9877
   -33.9877 -33.9804 -33.9804 -33.9804 -33.9508 -33.9508 -33.9508 -33.9473
   -33.9473 -33.9473 -33.9310 -33.9310 -33.9310 -33.9310 -33.9310 -33.9310
   -33.9305 -33.9305 -33.9305 -33.9201 -33.9201 -33.9201 -33.9112 -33.9112
   -33.9112 -33.9018 -33.9018 -33.9018 -33.8928 -33.8928 -33.8928 -33.8928
   -33.8928 -33.8928 -33.8891 -33.8891 -33.8891 -33.8877 -33.8877 -33.8853
   -33.8853 -33.8594 -33.8594 -33.8594 -33.8486 -33.8486 -33.8486 -33.8481
   -33.8464 -33.8464 -33.8464 -33.8235 -33.8235 -33.8218 -33.8171 -33.7858
   -33.7858 -33.7858 -33.7839 -33.7839 -33.7838 -33.7802 -33.7802 -33.7802
   -33.7691 -33.7691 -33.7691 -33.7691 -33.7691 -33.7691 -33.7660 -33.7660
   -33.7660 -33.7620 -33.7620 -33.7620 -33.7538 -33.7538 -33.7455 -33.7455
   -33.7455 -33.7431 -33.7431 -33.7431 -33.7416 -33.7416 -33.7416 -33.7314
   -33.7314 -33.7314 -33.7269 -33.7269 -33.7269 -33.7242 -33.7242 -33.7242
   -33.7164 -33.7164 -33.7164 -33.7164 -33.7164 -33.7164 -33.7133 -33.7133
   -33.7133 -33.7087 -33.7033 -33.6958 -33.6958 -33.6958 -33.6670 -33.6537
   -33.6537 -33.6537 -33.6537 -33.6537 -33.6537 -33.6515 -33.6515 -33.6514
   -33.6391 -33.6391 -33.6391 -33.6388 -33.6388 -33.6388 -33.6308 -33.6308
   -33.6308 -33.6276 -33.6276 -33.6260 -33.6260 -33.6260 -33.6228 -33.6228
   -33.6228 -33.6198 -33.6198 -33.6198 -33.6170 -33.6170 -33.6170 -33.6170
   -33.6170 -33.6170 -33.6055 -33.6055 -33.6055 -33.5981 -33.5981 -33.5981
   -33.5978 -33.5978 -33.5978 -33.5958 -33.5958 -33.5958 -33.5942 -33.5942
    10.0850  10.7865  10.7866  10.7866  11.4454  11.4454  11.4454  12.0788
    13.1518  13.1518  13.1518  13.5642  13.5642  13.5642  13.5642  13.5642
    13.5642  14.0337  14.0337  14.0337  14.2252  14.2252  14.2252  14.3495
    14.3495  14.3496  14.3998  14.3998  14.3999  14.5640  14.5640  14.5640
    14.5640  14.5640  14.5640  14.7407  14.7407  14.7408  14.8888  14.8888
    14.8888  14.9128  14.9128  14.9128  15.0846  15.0846  15.2384  15.2384
    15.2384  15.3919  15.3919  15.3919  15.4272  15.4272  15.4272  15.6043
    15.6043  15.6043  15.7464  15.7487  15.7487  15.8909  15.8909  15.9274
    16.0178  16.0178  16.0554  16.0554  16.0554  16.0793  16.0793  16.0793
    16.0927  16.0927  16.0927  16.1895  16.1895  16.1895  16.2107  16.2108
    16.2108  16.2726  16.2726  16.2726  16.3164  16.3164  16.3164  16.3164
    16.3164  16.3164  16.3737  16.3737  16.3737  16.5485  16.5486  16.5486
    16.5486  16.5486  16.5486  16.5937  16.5937  16.5937  16.6720  16.6720
    16.7151  16.7151  16.7151  16.7564  16.7645  16.7645  16.7645  16.7776
    16.7776  16.7776  16.8285  16.8285  16.8285  16.8345  16.8345  16.8345
    16.8345  16.8345  16.8345  16.8433  16.8433  16.8433  16.9424  16.9424
    16.9424  16.9424  16.9424  16.9424  16.9686  16.9686  16.9686  17.1084
    17.1084  17.1084  17.1537  17.1537  17.1537  17.1582  17.1582  17.1582
    17.2692  17.2692  17.3767  17.3767  17.3767  17.3964  17.3964  17.3964
    17.3973  17.3973  17.3973  17.4618  17.4618  17.4618  17.9661  18.1195
    18.1195  18.1195  18.3076  18.3076  18.3076  18.3148  18.3148  18.3148
    18.3185  18.3185  18.3185  18.6663  18.6663  18.6663  18.6663  18.6663
    18.6663  18.7781  18.7781  18.7781  18.7781  18.7781  18.7781  18.7835
    18.7835  18.7835  18.7971  18.9357  18.9357  18.9357  19.0084  19.0084
    19.0084  19.0131  19.0131  19.0131  19.0319  19.0319  19.0319  19.1287
    19.1287  19.1287  19.1637  19.1637  19.1637  19.2162  19.2162  19.2162
    19.2402  19.2402  19.2402  19.2867  19.2867  19.2867  19.2991  19.2991
    19.3279  19.3279  19.3349  19.3908  19.3908  19.3908  19.4223  19.4223
    19.4224  19.4258  19.4258  19.4258  19.4400  19.4400  19.4660  19.4660
    19.4660  19.4780  19.4780  19.4780  19.5993  19.5993  19.5993  19.5993
    19.5993  19.5993  19.6360  19.6360  19.6360  19.6410  19.6410  19.6410
    19.6479  19.6479  19.6479  19.6533  19.6533  19.6533  19.6605  19.6605
    19.6605  19.6682  19.6682  19.6746  19.6746  19.7226  19.7226  19.7226
    19.7226  19.7226  19.7226  19.7649  19.7649  19.7649  19.8438  19.8438
    19.9138  19.9138  19.9138  19.9258  19.9258  19.9258  20.0316  20.0316
    20.0316  20.1301  20.1301  20.1301  20.1301  20.1301  20.1301  20.6873
    20.6873  20.6873  20.7616  20.7616  20.7616  20.8062  20.8062  20.8062
    21.1189  21.1189  21.1189  21.1189  21.1189  21.1189

     the Fermi energy is    17.4739 ev

!    total energy              =  -13379.23285118 Ry
     estimated scf accuracy    <       0.00000049 Ry
     smearing contrib. (-TS)   =       0.05014476 Ry
     internal energy E=F+TS    =  -13379.28299594 Ry

     The total energy is F=E-TS. E is the sum of the following terms:
     one-electron contribution =   -6162.54966044 Ry
     hartree contribution      =    3570.63426905 Ry
     xc contribution           =   -1498.45268475 Ry
     ewald contribution        =   -9288.91491980 Ry

     total magnetization       =   126.59 Bohr mag/cell
     absolute magnetization    =   134.54 Bohr mag/cell

     convergence has been achieved in  16 iterations

     Writing all to output data dir ./outdir/fe54_pure.save/ :
     XML data file, charge density, pseudopotentials, collected wavefunctions

     init_run     :     47.82s CPU     49.35s WALL (       1 calls)
     electrons    :   2762.68s CPU   2814.89s WALL (       1 calls)

     Called by init_run:
     wfcinit      :     44.30s CPU     45.57s WALL (       1 calls)
     potinit      :      0.91s CPU      0.98s WALL (       1 calls)
     hinit0       :      1.07s CPU      1.09s WALL (       1 calls)

     Called by electrons:
     c_bands      :   2497.65s CPU   2541.06s WALL (      16 calls)
     sum_band     :    234.83s CPU    241.35s WALL (      16 calls)
     v_of_rho     :      8.21s CPU      8.39s WALL (      17 calls)
     newd         :     20.61s CPU     22.78s WALL (      17 calls)
     mix_rho      :      2.46s CPU      2.54s WALL (      16 calls)

     Called by c_bands:
     init_us_2    :     10.66s CPU     10.72s WALL (     264 calls)
     cegterg      :   2449.67s CPU   2492.95s WALL (     128 calls)

     Called by *egterg:
     cdiaghg      :    316.13s CPU    324.75s WALL (     578 calls)
     h_psi        :    970.78s CPU    993.53s WALL (     586 calls)
     s_psi        :    242.35s CPU    242.87s WALL (     586 calls)
     g_psi        :      5.82s CPU      5.83s WALL (     450 calls)

     Called by h_psi:
     h_psi:calbec :    255.30s CPU    256.59s WALL (     586 calls)
     vloc_psi     :    467.77s CPU    484.02s WALL (     586 calls)
                                        0.00s GPU  (     586 calls)
     add_vuspsi   :    244.19s CPU    244.70s WALL (     586 calls)

     General routines
     calbec       :    355.97s CPU    357.75s WALL (     714 calls)
     fft          :      3.52s CPU      3.73s WALL (     419 calls)
     ffts         :      1.14s CPU      1.21s WALL (     361 calls)
     fftw         :    489.17s CPU    506.70s WALL (  394416 calls)
     interpolate  :      0.78s CPU      0.80s WALL (      34 calls)

     Parallel routines

     PWSCF        :  46m51.24s CPU  47m46.31s WALL


   This run was terminated on:  19:33:38  19Jun2026            

=------------------------------------------------------------------------------=
   JOB DONE.
=------------------------------------------------------------------------------=
