
     Program PWSCF v.7.5 starts on 20Jun2026 at  6: 2:13 

     This program is part of the open-source Quantum ESPRESSO suite
     for quantum simulation of materials; please cite
         "P. Giannozzi et al., J. Phys.:Condens. Matter 21 395502 (2009);
         "P. Giannozzi et al., J. Phys.:Condens. Matter 29 465901 (2017);
         "P. Giannozzi et al., J. Chem. Phys. 152 154105 (2020);
          URL http://www.quantum-espresso.org", 
     in publications or presentations arising from this work. More details at
     http://www.quantum-espresso.org/quote

     Parallel version (MPI & OpenMP), running on       4 processor cores
     Number of MPI processes:                 4
     Threads/MPI process:                     1

     MPI processes distributed on     1 nodes
     24173 MiB available memory on the printing compute node when the environment starts

     Reading input from fe54_3ni_dispersed.scf.in

     Current dimensions of program PWSCF are:
     Max number of different atomic species (ntypx) = 10
     Max number of k-points (npk) =  40000
     Max angular momentum in pseudopotentials (lmaxx) =  4
     file Fe.pbe-spn-rrkjus_psl.1.0.0.UPF: wavefunction(s)  3P 3D renormalized
     file Ni.pbe-spn-rrkjus_psl.1.0.0.UPF: wavefunction(s)  3P 3D renormalized
     Found identity + (  0.3333 -0.3333 -0.3333) symmetry
     This is a supercell, fractional translations are disabled

     R & G space division:  proc/nbgrp/npool/nimage =       4
     Subspace diagonalization in iterative solution of the eigenvalue problem:
     one sub-group per band group will be used
     ELPA distributed-memory algorithm (size of sub-group:  2*  2 procs)


     Parallelization info
     --------------------
     sticks:   dense  smooth     PW     G-vecs:    dense   smooth      PW
     Min        1893     944    251               123669    43650    6027
     Max        1894     945    252               123672    43653    6030
     Sum        7573    3777   1005               494679   174605   24111

     Using Slab Decomposition



     bravais-lattice index     =            1
     lattice parameter (alat)  =      16.2480  a.u.
     unit-cell volume          =    4289.4314 (a.u.)^3
     number of atoms/cell      =           54
     number of atomic types    =            2
     number of electrons       =       870.00
     number of Kohn-Sham states=          522
     kinetic-energy cutoff     =      45.0000  Ry
     charge density cutoff     =     360.0000  Ry
     scf convergence threshold =      1.0E-06
     mixing beta               =       0.1000
     number of iterations used =            8  local-TF  mixing
     Exchange-correlation= PBE
                           (   1   4   3   4   0   0   0)

     celldm(1)=  16.248000  celldm(2)=   0.000000  celldm(3)=   0.000000
     celldm(4)=   0.000000  celldm(5)=   0.000000  celldm(6)=   0.000000

     crystal axes: (cart. coord. in units of alat)
               a(1) = (   1.000000   0.000000   0.000000 )  
               a(2) = (   0.000000   1.000000   0.000000 )  
               a(3) = (   0.000000   0.000000   1.000000 )  

     reciprocal axes: (cart. coord. in units 2 pi/alat)
               b(1) = (  1.000000  0.000000  0.000000 )  
               b(2) = (  0.000000  1.000000  0.000000 )  
               b(3) = (  0.000000  0.000000  1.000000 )  


     PseudoPot. # 1 for Fe read from file:
     ../pseudo/Fe.pbe-spn-rrkjus_psl.1.0.0.UPF
     MD5 check sum: 72ea77fed8e64ab3a2ccf2804dfc1862
     Pseudo is Ultrasoft + core correction, Zval = 16.0
     Generated using &quot;atomic&quot; code by A. Dal Corso  v.6.3
     Using radial grid of 1191 points,  6 beta functions with: 
                l(1) =   0
                l(2) =   0
                l(3) =   1
                l(4) =   1
                l(5) =   2
                l(6) =   2
     Q(r) pseudized with 0 coefficients 


     PseudoPot. # 2 for Ni read from file:
     ../pseudo/Ni.pbe-spn-rrkjus_psl.1.0.0.UPF
     MD5 check sum: 8b3fc9aac6dafe35f580d41bb18c3945
     Pseudo is Ultrasoft + core correction, Zval = 18.0
     Generated using &quot;atomic&quot; code by A. Dal Corso  v.6.3
     Using radial grid of 1195 points,  6 beta functions with: 
                l(1) =   0
                l(2) =   0
                l(3) =   1
                l(4) =   1
                l(5) =   2
                l(6) =   2
     Q(r) pseudized with 0 coefficients 


     atomic species   valence    mass     pseudopotential
     Fe               16.00    55.84500     Fe( 1.00)
     Ni               18.00    58.69300     Ni( 1.00)

     Starting magnetic structure 
     atomic species   magnetization
     Fe              0.500
     Ni              0.200

      2 Sym. Ops. (no inversion) found



   Cartesian axes

     site n.     atom                  positions (alat units)
         1        Fe     tau(   1) = (   0.0000000   0.0000000   0.0000000  )
         2        Fe     tau(   2) = (   0.1666670   0.1666670   0.1666670  )
         3        Ni     tau(   3) = (   0.0000000   0.0000000   0.3333330  )
         4        Fe     tau(   4) = (   0.1666670   0.1666670   0.5000000  )
         5        Fe     tau(   5) = (   0.0000000   0.0000000   0.6666670  )
         6        Fe     tau(   6) = (   0.1666670   0.1666670   0.8333330  )
         7        Fe     tau(   7) = (   0.0000000   0.3333330   0.0000000  )
         8        Fe     tau(   8) = (   0.1666670   0.5000000   0.1666670  )
         9        Fe     tau(   9) = (   0.0000000   0.3333330   0.3333330  )
        10        Fe     tau(  10) = (   0.1666670   0.5000000   0.5000000  )
        11        Fe     tau(  11) = (   0.0000000   0.3333330   0.6666670  )
        12        Fe     tau(  12) = (   0.1666670   0.5000000   0.8333330  )
        13        Fe     tau(  13) = (   0.0000000   0.6666670   0.0000000  )
        14        Fe     tau(  14) = (   0.1666670   0.8333330   0.1666670  )
        15        Fe     tau(  15) = (   0.0000000   0.6666670   0.3333330  )
        16        Fe     tau(  16) = (   0.1666670   0.8333330   0.5000000  )
        17        Fe     tau(  17) = (   0.0000000   0.6666670   0.6666670  )
        18        Fe     tau(  18) = (   0.1666670   0.8333330   0.8333330  )
        19        Fe     tau(  19) = (   0.3333330   0.0000000   0.0000000  )
        20        Fe     tau(  20) = (   0.5000000   0.1666670   0.1666670  )
        21        Fe     tau(  21) = (   0.3333330   0.0000000   0.3333330  )
        22        Fe     tau(  22) = (   0.5000000   0.1666670   0.5000000  )
        23        Fe     tau(  23) = (   0.3333330   0.0000000   0.6666670  )
        24        Fe     tau(  24) = (   0.5000000   0.1666670   0.8333330  )
        25        Fe     tau(  25) = (   0.3333330   0.3333330   0.0000000  )
        26        Fe     tau(  26) = (   0.5000000   0.5000000   0.1666670  )
        27        Fe     tau(  27) = (   0.3333330   0.3333330   0.3333330  )
        28        Fe     tau(  28) = (   0.5000000   0.5000000   0.5000000  )
        29        Fe     tau(  29) = (   0.3333330   0.3333330   0.6666670  )
        30        Fe     tau(  30) = (   0.5000000   0.5000000   0.8333330  )
        31        Ni     tau(  31) = (   0.3333330   0.6666670   0.0000000  )
        32        Fe     tau(  32) = (   0.5000000   0.8333330   0.1666670  )
        33        Fe     tau(  33) = (   0.3333330   0.6666670   0.3333330  )
        34        Fe     tau(  34) = (   0.5000000   0.8333330   0.5000000  )
        35        Fe     tau(  35) = (   0.3333330   0.6666670   0.6666670  )
        36        Fe     tau(  36) = (   0.5000000   0.8333330   0.8333330  )
        37        Fe     tau(  37) = (   0.6666670   0.0000000   0.0000000  )
        38        Fe     tau(  38) = (   0.8333330   0.1666670   0.1666670  )
        39        Fe     tau(  39) = (   0.6666670   0.0000000   0.3333330  )
        40        Fe     tau(  40) = (   0.8333330   0.1666670   0.5000000  )
        41        Fe     tau(  41) = (   0.6666670   0.0000000   0.6666670  )
        42        Fe     tau(  42) = (   0.8333330   0.1666670   0.8333330  )
        43        Fe     tau(  43) = (   0.6666670   0.3333330   0.0000000  )
        44        Fe     tau(  44) = (   0.8333330   0.5000000   0.1666670  )
        45        Fe     tau(  45) = (   0.6666670   0.3333330   0.3333330  )
        46        Fe     tau(  46) = (   0.8333330   0.5000000   0.5000000  )
        47        Ni     tau(  47) = (   0.6666670   0.3333330   0.6666670  )
        48        Fe     tau(  48) = (   0.8333330   0.5000000   0.8333330  )
        49        Fe     tau(  49) = (   0.6666670   0.6666670   0.0000000  )
        50        Fe     tau(  50) = (   0.8333330   0.8333330   0.1666670  )
        51        Fe     tau(  51) = (   0.6666670   0.6666670   0.3333330  )
        52        Fe     tau(  52) = (   0.8333330   0.8333330   0.5000000  )
        53        Fe     tau(  53) = (   0.6666670   0.6666670   0.6666670  )
        54        Fe     tau(  54) = (   0.8333330   0.8333330   0.8333330  )

     number of k points=    10  Marzari-Vanderbilt smearing, width (Ry)=  0.0200
                       cart. coord. in units 2pi/alat
        k(    1) = (   0.0000000   0.0000000   0.0000000), wk =   0.0370370
        k(    2) = (   0.0000000   0.0000000   0.3333333), wk =   0.0740741
        k(    3) = (   0.0000000   0.3333333   0.3333333), wk =   0.1481481
        k(    4) = (   0.3333333   0.3333333   0.3333333), wk =   0.1481481
        k(    5) = (   0.3333333   0.0000000   0.0000000), wk =   0.1481481
        k(    6) = (   0.0000000   0.3333333  -0.3333333), wk =   0.1481481
        k(    7) = (   0.3333333  -0.3333333   0.0000000), wk =   0.0740741
        k(    8) = (  -0.3333333  -0.3333333   0.0000000), wk =   0.0740741
        k(    9) = (  -0.3333333   0.3333333  -0.3333333), wk =   0.0740741
        k(   10) = (   0.3333333  -0.3333333  -0.3333333), wk =   0.0740741

     Dense  grid:   494679 G-vectors     FFT dimensions: ( 100, 100, 100)

     Smooth grid:   174605 G-vectors     FFT dimensions: (  72,  72,  72)

     Estimated max dynamical RAM per process >       1.53 GB

     Estimated total dynamical RAM >       6.12 GB

     Check: negative core charge=   -0.000004
     Generating pointlists ...
     new r_m :   0.1191 (alat units)  1.9348 (a.u.) for type    1
     new r_m :   0.1191 (alat units)  1.9348 (a.u.) for type    2

     Initial potential from superposition of free atoms

     starting charge     869.9769, renormalised to     870.0000
     Starting wfcs are  540 randomized atomic wfcs

     total cpu time spent up to now is      119.3 secs

     per-process dynamical memory:  1127.4 Mb

     Self-consistent Calculation

     iteration #  1     ecut=    45.00 Ry     beta= 0.10
     Davidson diagonalization with overlap
     ethr =  1.00E-02,  avg # of iterations =  3.5

     total cpu time spent up to now is      565.8 secs

     total energy              =  -13635.28034819 Ry
     estimated scf accuracy    <      29.77721535 Ry

     total magnetization       =   173.86 Bohr mag/cell
     absolute magnetization    =   179.18 Bohr mag/cell

     iteration #  2     ecut=    45.00 Ry     beta= 0.10
     Davidson diagonalization with overlap
     ethr =  3.42E-03,  avg # of iterations =  1.4

     negative rho (up, down):  0.000E+00 9.495E-03

     total cpu time spent up to now is      901.3 secs

     total energy              =  -13650.09726861 Ry
     estimated scf accuracy    <      24.35530714 Ry

     total magnetization       =   173.72 Bohr mag/cell
     absolute magnetization    =   179.29 Bohr mag/cell

     iteration #  3     ecut=    45.00 Ry     beta= 0.10
     Davidson diagonalization with overlap
     ethr =  2.80E-03,  avg # of iterations =  1.2

     negative rho (up, down):  0.000E+00 1.612E-02

     total cpu time spent up to now is     1226.7 secs

     total energy              =  -13652.89693380 Ry
     estimated scf accuracy    <       6.02450661 Ry

     total magnetization       =   151.25 Bohr mag/cell
     absolute magnetization    =   162.75 Bohr mag/cell

     iteration #  4     ecut=    45.00 Ry     beta= 0.10
     Davidson diagonalization with overlap
     ethr =  6.92E-04,  avg # of iterations =  2.5

     negative rho (up, down):  0.000E+00 1.644E-02

     total cpu time spent up to now is     1590.4 secs

     total energy              =  -13653.34505567 Ry
     estimated scf accuracy    <       6.76914599 Ry

     total magnetization       =   145.51 Bohr mag/cell
     absolute magnetization    =   159.69 Bohr mag/cell

     iteration #  5     ecut=    45.00 Ry     beta= 0.10
     Davidson diagonalization with overlap
     ethr =  6.92E-04,  avg # of iterations =  2.2

     negative rho (up, down):  0.000E+00 2.671E-02

     total cpu time spent up to now is     1955.0 secs

     total energy              =  -13653.73097371 Ry
     estimated scf accuracy    <      20.06749351 Ry

     total magnetization       =   144.79 Bohr mag/cell
     absolute magnetization    =   163.58 Bohr mag/cell

     iteration #  6     ecut=    45.00 Ry     beta= 0.10
     Davidson diagonalization with overlap
     ethr =  6.92E-04,  avg # of iterations =  2.2

     negative rho (up, down):  0.000E+00 2.637E-02

     total cpu time spent up to now is     2326.1 secs

     total energy              =  -13654.13297693 Ry
     estimated scf accuracy    <       3.11588722 Ry

     total magnetization       =   136.96 Bohr mag/cell
     absolute magnetization    =   150.61 Bohr mag/cell

     iteration #  7     ecut=    45.00 Ry     beta= 0.10
     Davidson diagonalization with overlap
     ethr =  3.58E-04,  avg # of iterations =  1.4

     negative rho (up, down):  0.000E+00 2.596E-02

     total cpu time spent up to now is     2670.2 secs

     total energy              =  -13654.03580928 Ry
     estimated scf accuracy    <       3.08020813 Ry

     total magnetization       =   136.94 Bohr mag/cell
     absolute magnetization    =   150.10 Bohr mag/cell

     iteration #  8     ecut=    45.00 Ry     beta= 0.10
     Davidson diagonalization with overlap
     ethr =  3.54E-04,  avg # of iterations =  1.9

     negative rho (up, down):  0.000E+00 2.473E-02

     total cpu time spent up to now is     3026.4 secs

     total energy              =  -13654.07755560 Ry
     estimated scf accuracy    <       0.50321195 Ry

     total magnetization       =   136.80 Bohr mag/cell
     absolute magnetization    =   147.70 Bohr mag/cell

     iteration #  9     ecut=    45.00 Ry     beta= 0.10
     Davidson diagonalization with overlap
     ethr =  5.78E-05,  avg # of iterations =  3.3

     negative rho (up, down):  0.000E+00 2.074E-02

     total cpu time spent up to now is     3381.8 secs

     total energy              =  -13654.10217668 Ry
     estimated scf accuracy    <       0.30253417 Ry

     total magnetization       =   136.57 Bohr mag/cell
     absolute magnetization    =   147.10 Bohr mag/cell

     iteration # 10     ecut=    45.00 Ry     beta= 0.10
     Davidson diagonalization with overlap
     ethr =  3.48E-05,  avg # of iterations =  3.2

     negative rho (up, down):  0.000E+00 1.400E-02

     total cpu time spent up to now is     3754.4 secs

     total energy              =  -13654.13303581 Ry
     estimated scf accuracy    <       0.34975638 Ry

     total magnetization       =   135.82 Bohr mag/cell
     absolute magnetization    =   146.28 Bohr mag/cell

     iteration # 11     ecut=    45.00 Ry     beta= 0.10
     Davidson diagonalization with overlap
     ethr =  3.48E-05,  avg # of iterations =  3.5

     negative rho (up, down):  0.000E+00 1.491E-02

     total cpu time spent up to now is     4170.5 secs

     total energy              =  -13654.18494063 Ry
     estimated scf accuracy    <       0.72457614 Ry

     total magnetization       =   133.11 Bohr mag/cell
     absolute magnetization    =   143.28 Bohr mag/cell

     iteration # 12     ecut=    45.00 Ry     beta= 0.10
     Davidson diagonalization with overlap
     ethr =  3.48E-05,  avg # of iterations =  2.0

     negative rho (up, down):  0.000E+00 1.451E-02

     total cpu time spent up to now is     4531.5 secs

     total energy              =  -13654.21897736 Ry
     estimated scf accuracy    <       0.30827515 Ry

     total magnetization       =   132.70 Bohr mag/cell
     absolute magnetization    =   142.76 Bohr mag/cell

     iteration # 13     ecut=    45.00 Ry     beta= 0.10
     Davidson diagonalization with overlap
     ethr =  3.48E-05,  avg # of iterations =  2.4

     negative rho (up, down):  0.000E+00 1.415E-02

     total cpu time spent up to now is     4899.1 secs

     total energy              =  -13654.23948729 Ry
     estimated scf accuracy    <       0.05867097 Ry

     total magnetization       =   133.07 Bohr mag/cell
     absolute magnetization    =   142.75 Bohr mag/cell

     iteration # 14     ecut=    45.00 Ry     beta= 0.10
     Davidson diagonalization with overlap
     c_bands:  1 eigenvalues not converged
     ethr =  6.74E-06,  avg # of iterations =  3.4

     negative rho (up, down):  0.000E+00 1.032E-02

     total cpu time spent up to now is     5252.7 secs

     total energy              =  -13654.25587662 Ry
     estimated scf accuracy    <       0.10364329 Ry

     total magnetization       =   133.05 Bohr mag/cell
     absolute magnetization    =   142.77 Bohr mag/cell

     iteration # 15     ecut=    45.00 Ry     beta= 0.10
     Davidson diagonalization with overlap
     ethr =  6.74E-06,  avg # of iterations =  3.4

     negative rho (up, down):  0.000E+00 9.133E-03

     total cpu time spent up to now is     5636.6 secs

     total energy              =  -13654.27015377 Ry
     estimated scf accuracy    <       0.04493748 Ry

     total magnetization       =   131.60 Bohr mag/cell
     absolute magnetization    =   140.98 Bohr mag/cell

     iteration # 16     ecut=    45.00 Ry     beta= 0.10
     Davidson diagonalization with overlap
     ethr =  5.17E-06,  avg # of iterations =  1.9

     negative rho (up, down):  0.000E+00 7.922E-03

     total cpu time spent up to now is     5996.2 secs

     total energy              =  -13654.28517114 Ry
     estimated scf accuracy    <       0.02055799 Ry

     total magnetization       =   131.72 Bohr mag/cell
     absolute magnetization    =   140.86 Bohr mag/cell

     iteration # 17     ecut=    45.00 Ry     beta= 0.10
     Davidson diagonalization with overlap
     ethr =  2.36E-06,  avg # of iterations =  2.5

     negative rho (up, down):  0.000E+00 7.112E-03

     total cpu time spent up to now is     6376.2 secs

     total energy              =  -13654.29204933 Ry
     estimated scf accuracy    <       0.07634947 Ry

     total magnetization       =   131.71 Bohr mag/cell
     absolute magnetization    =   140.73 Bohr mag/cell

     iteration # 18     ecut=    45.00 Ry     beta= 0.10
     Davidson diagonalization with overlap
     ethr =  2.36E-06,  avg # of iterations =  2.0

     negative rho (up, down):  0.000E+00 6.030E-03

     total cpu time spent up to now is     6750.0 secs

     total energy              =  -13654.29991043 Ry
     estimated scf accuracy    <       0.00727275 Ry

     total magnetization       =   131.61 Bohr mag/cell
     absolute magnetization    =   140.40 Bohr mag/cell

     iteration # 19     ecut=    45.00 Ry     beta= 0.10
     Davidson diagonalization with overlap
     ethr =  8.36E-07,  avg # of iterations =  3.0

     negative rho (up, down):  0.000E+00 5.899E-03

     total cpu time spent up to now is     7134.5 secs

     total energy              =  -13654.30453418 Ry
     estimated scf accuracy    <       0.00411708 Ry

     total magnetization       =   131.63 Bohr mag/cell
     absolute magnetization    =   140.21 Bohr mag/cell

     iteration # 20     ecut=    45.00 Ry     beta= 0.10
     Davidson diagonalization with overlap
     ethr =  4.73E-07,  avg # of iterations =  2.0

     negative rho (up, down):  0.000E+00 5.799E-03

     total cpu time spent up to now is     7502.0 secs

     total energy              =  -13654.30740740 Ry
     estimated scf accuracy    <       0.01095665 Ry

     total magnetization       =   131.28 Bohr mag/cell
     absolute magnetization    =   139.83 Bohr mag/cell

     iteration # 21     ecut=    45.00 Ry     beta= 0.10
     Davidson diagonalization with overlap
     ethr =  4.73E-07,  avg # of iterations =  2.0

     negative rho (up, down):  0.000E+00 5.714E-03

     total cpu time spent up to now is     7872.4 secs

     total energy              =  -13654.31023559 Ry
     estimated scf accuracy    <       0.00785608 Ry

     total magnetization       =   131.62 Bohr mag/cell
     absolute magnetization    =   140.12 Bohr mag/cell

     iteration # 22     ecut=    45.00 Ry     beta= 0.10
     Davidson diagonalization with overlap
     ethr =  4.73E-07,  avg # of iterations =  2.0

     negative rho (up, down):  0.000E+00 5.977E-03

     total cpu time spent up to now is     8237.0 secs

     total energy              =  -13654.31221276 Ry
     estimated scf accuracy    <       0.00581740 Ry

     total magnetization       =   131.69 Bohr mag/cell
     absolute magnetization    =   140.18 Bohr mag/cell

     iteration # 23     ecut=    45.00 Ry     beta= 0.10
     Davidson diagonalization with overlap
     ethr =  4.73E-07,  avg # of iterations =  1.5

     negative rho (up, down):  0.000E+00 5.774E-03

     total cpu time spent up to now is     8573.6 secs

     total energy              =  -13654.31412266 Ry
     estimated scf accuracy    <       0.00620648 Ry

     total magnetization       =   131.80 Bohr mag/cell
     absolute magnetization    =   140.32 Bohr mag/cell

     iteration # 24     ecut=    45.00 Ry     beta= 0.10
     Davidson diagonalization with overlap
     ethr =  4.73E-07,  avg # of iterations =  1.9

     negative rho (up, down):  0.000E+00 5.872E-03

     total cpu time spent up to now is     8930.8 secs

     total energy              =  -13654.31583921 Ry
     estimated scf accuracy    <       0.00535177 Ry

     total magnetization       =   131.76 Bohr mag/cell
     absolute magnetization    =   140.26 Bohr mag/cell

     iteration # 25     ecut=    45.00 Ry     beta= 0.10
     Davidson diagonalization with overlap
     c_bands:  2 eigenvalues not converged
     c_bands:  2 eigenvalues not converged
     ethr =  4.73E-07,  avg # of iterations =  3.8

     negative rho (up, down):  0.000E+00 5.301E-03

     total cpu time spent up to now is     9308.0 secs

     total energy              =  -13654.31768919 Ry
     estimated scf accuracy    <       0.01425478 Ry

     total magnetization       =   131.47 Bohr mag/cell
     absolute magnetization    =   140.01 Bohr mag/cell

     iteration # 26     ecut=    45.00 Ry     beta= 0.10
     Davidson diagonalization with overlap
     ethr =  4.73E-07,  avg # of iterations =  1.8

     negative rho (up, down):  0.000E+00 5.209E-03

     total cpu time spent up to now is     9657.6 secs

     total energy              =  -13654.31915083 Ry
     estimated scf accuracy    <       0.01416165 Ry

     total magnetization       =   131.50 Bohr mag/cell
     absolute magnetization    =   139.94 Bohr mag/cell

     iteration # 27     ecut=    45.00 Ry     beta= 0.10
     Davidson diagonalization with overlap
     ethr =  4.73E-07,  avg # of iterations =  1.0

     negative rho (up, down):  0.000E+00 4.877E-03

     total cpu time spent up to now is     9970.5 secs

     total energy              =  -13654.32025458 Ry
     estimated scf accuracy    <       0.01651908 Ry

     total magnetization       =   131.41 Bohr mag/cell
     absolute magnetization    =   139.83 Bohr mag/cell

     iteration # 28     ecut=    45.00 Ry     beta= 0.10
     Davidson diagonalization with overlap
     ethr =  4.73E-07,  avg # of iterations =  1.5

     negative rho (up, down):  0.000E+00 5.693E-03

     total cpu time spent up to now is    10306.9 secs

     total energy              =  -13654.32003602 Ry
     estimated scf accuracy    <       0.02138262 Ry

     total magnetization       =   131.43 Bohr mag/cell
     absolute magnetization    =   139.79 Bohr mag/cell

     iteration # 29     ecut=    45.00 Ry     beta= 0.10
     Davidson diagonalization with overlap
     ethr =  4.73E-07,  avg # of iterations =  2.0

     negative rho (up, down):  0.000E+00 5.568E-03

     total cpu time spent up to now is    10673.2 secs

     total energy              =  -13654.32063822 Ry
     estimated scf accuracy    <       0.01524413 Ry

     total magnetization       =   131.49 Bohr mag/cell
     absolute magnetization    =   139.96 Bohr mag/cell

     iteration # 30     ecut=    45.00 Ry     beta= 0.10
     Davidson diagonalization with overlap
     ethr =  4.73E-07,  avg # of iterations =  1.9

     negative rho (up, down):  0.000E+00 5.618E-03

     total cpu time spent up to now is    11030.6 secs

     total energy              =  -13654.32069184 Ry
     estimated scf accuracy    <       0.02256288 Ry

     total magnetization       =   131.35 Bohr mag/cell
     absolute magnetization    =   139.85 Bohr mag/cell

     iteration # 31     ecut=    45.00 Ry     beta= 0.10
     Davidson diagonalization with overlap
     ethr =  4.73E-07,  avg # of iterations =  2.0

     negative rho (up, down):  0.000E+00 5.952E-03

     total cpu time spent up to now is    11397.2 secs

     total energy              =  -13654.31948279 Ry
     estimated scf accuracy    <       0.01480534 Ry

     total magnetization       =   131.42 Bohr mag/cell
     absolute magnetization    =   139.88 Bohr mag/cell

     iteration # 32     ecut=    45.00 Ry     beta= 0.10
     Davidson diagonalization with overlap
     ethr =  4.73E-07,  avg # of iterations =  1.9

     negative rho (up, down):  0.000E+00 5.291E-03

     total cpu time spent up to now is    11758.0 secs

     total energy              =  -13654.32097903 Ry
     estimated scf accuracy    <       0.00833375 Ry

     total magnetization       =   131.84 Bohr mag/cell
     absolute magnetization    =   140.33 Bohr mag/cell

     iteration # 33     ecut=    45.00 Ry     beta= 0.10
     Davidson diagonalization with overlap
     ethr =  4.73E-07,  avg # of iterations =  2.0

     negative rho (up, down):  0.000E+00 6.410E-03

     total cpu time spent up to now is    12136.7 secs

     total energy              =  -13654.31670854 Ry
     estimated scf accuracy    <       0.02652335 Ry

     total magnetization       =   131.23 Bohr mag/cell
     absolute magnetization    =   139.71 Bohr mag/cell

     iteration # 34     ecut=    45.00 Ry     beta= 0.10
     Davidson diagonalization with overlap
     ethr =  4.73E-07,  avg # of iterations =  2.6

     negative rho (up, down):  0.000E+00 5.303E-03

     total cpu time spent up to now is    12531.7 secs

     total energy              =  -13654.31951603 Ry
     estimated scf accuracy    <       0.02094317 Ry

     total magnetization       =   132.33 Bohr mag/cell
     absolute magnetization    =   140.87 Bohr mag/cell

     iteration # 35     ecut=    45.00 Ry     beta= 0.10
     Davidson diagonalization with overlap
     ethr =  4.73E-07,  avg # of iterations =  2.7

     negative rho (up, down):  0.000E+00 4.814E-03

     total cpu time spent up to now is    12922.1 secs

     total energy              =  -13654.32092717 Ry
     estimated scf accuracy    <       0.00802743 Ry

     total magnetization       =   131.20 Bohr mag/cell
     absolute magnetization    =   139.68 Bohr mag/cell

     iteration # 36     ecut=    45.00 Ry     beta= 0.10
     Davidson diagonalization with overlap
     ethr =  4.73E-07,  avg # of iterations =  2.1

     negative rho (up, down):  0.000E+00 4.686E-03

     total cpu time spent up to now is    13317.5 secs

     total energy              =  -13654.32189215 Ry
     estimated scf accuracy    <       0.00964229 Ry

     total magnetization       =   131.01 Bohr mag/cell
     absolute magnetization    =   139.37 Bohr mag/cell

     iteration # 37     ecut=    45.00 Ry     beta= 0.10
     Davidson diagonalization with overlap
     ethr =  4.73E-07,  avg # of iterations =  2.0

     negative rho (up, down):  0.000E+00 5.273E-03

     total cpu time spent up to now is    13690.6 secs

     total energy              =  -13654.32121842 Ry
     estimated scf accuracy    <       0.00503380 Ry

     total magnetization       =   131.02 Bohr mag/cell
     absolute magnetization    =   139.32 Bohr mag/cell

     iteration # 38     ecut=    45.00 Ry     beta= 0.10
     Davidson diagonalization with overlap
     ethr =  4.73E-07,  avg # of iterations =  2.0

     negative rho (up, down):  0.000E+00 5.031E-03

     total cpu time spent up to now is    14057.3 secs

     total energy              =  -13654.32191160 Ry
     estimated scf accuracy    <       0.00332110 Ry

     total magnetization       =   131.04 Bohr mag/cell
     absolute magnetization    =   139.47 Bohr mag/cell

     iteration # 39     ecut=    45.00 Ry     beta= 0.10
     Davidson diagonalization with overlap
     ethr =  3.82E-07,  avg # of iterations =  1.5

     negative rho (up, down):  0.000E+00 5.018E-03

     total cpu time spent up to now is    14393.8 secs

     total energy              =  -13654.32205252 Ry
     estimated scf accuracy    <       0.00217829 Ry

     total magnetization       =   130.93 Bohr mag/cell
     absolute magnetization    =   139.33 Bohr mag/cell

     iteration # 40     ecut=    45.00 Ry     beta= 0.10
     Davidson diagonalization with overlap
     ethr =  2.50E-07,  avg # of iterations =  1.0

     negative rho (up, down):  0.000E+00 5.020E-03

     total cpu time spent up to now is    14706.5 secs

     total energy              =  -13654.32212537 Ry
     estimated scf accuracy    <       0.00321539 Ry

     total magnetization       =   130.96 Bohr mag/cell
     absolute magnetization    =   139.35 Bohr mag/cell

     iteration # 41     ecut=    45.00 Ry     beta= 0.10
     Davidson diagonalization with overlap
     ethr =  2.50E-07,  avg # of iterations =  1.2

     negative rho (up, down):  0.000E+00 5.081E-03

     total cpu time spent up to now is    15030.8 secs

     total energy              =  -13654.32219720 Ry
     estimated scf accuracy    <       0.00234138 Ry

     total magnetization       =   130.90 Bohr mag/cell
     absolute magnetization    =   139.30 Bohr mag/cell

     iteration # 42     ecut=    45.00 Ry     beta= 0.10
     Davidson diagonalization with overlap
     ethr =  2.50E-07,  avg # of iterations =  1.1

     negative rho (up, down):  0.000E+00 5.164E-03

     total cpu time spent up to now is    15350.4 secs

     total energy              =  -13654.32245849 Ry
     estimated scf accuracy    <       0.00103740 Ry

     total magnetization       =   130.88 Bohr mag/cell
     absolute magnetization    =   139.28 Bohr mag/cell

     iteration # 43     ecut=    45.00 Ry     beta= 0.10
     Davidson diagonalization with overlap
     ethr =  1.19E-07,  avg # of iterations =  2.0

     negative rho (up, down):  0.000E+00 5.080E-03

     total cpu time spent up to now is    15718.2 secs

     total energy              =  -13654.32257181 Ry
     estimated scf accuracy    <       0.00087028 Ry

     total magnetization       =   130.72 Bohr mag/cell
     absolute magnetization    =   139.07 Bohr mag/cell

     iteration # 44     ecut=    45.00 Ry     beta= 0.10
     Davidson diagonalization with overlap
     ethr =  1.00E-07,  avg # of iterations =  2.0

     negative rho (up, down):  0.000E+00 4.907E-03

     total cpu time spent up to now is    16089.8 secs

     total energy              =  -13654.32275363 Ry
     estimated scf accuracy    <       0.00255096 Ry

     total magnetization       =   130.76 Bohr mag/cell
     absolute magnetization    =   139.10 Bohr mag/cell

     iteration # 45     ecut=    45.00 Ry     beta= 0.10
     Davidson diagonalization with overlap
     ethr =  1.00E-07,  avg # of iterations =  2.6

     negative rho (up, down):  0.000E+00 4.881E-03

     total cpu time spent up to now is    16488.7 secs

     total energy              =  -13654.32306311 Ry
     estimated scf accuracy    <       0.00069931 Ry

     total magnetization       =   130.31 Bohr mag/cell
     absolute magnetization    =   138.59 Bohr mag/cell

     iteration # 46     ecut=    45.00 Ry     beta= 0.10
     Davidson diagonalization with overlap
     ethr =  8.04E-08,  avg # of iterations =  1.9

     negative rho (up, down):  0.000E+00 4.820E-03

     total cpu time spent up to now is    16842.8 secs

     total energy              =  -13654.32312754 Ry
     estimated scf accuracy    <       0.00155990 Ry

     total magnetization       =   130.32 Bohr mag/cell
     absolute magnetization    =   138.58 Bohr mag/cell

     iteration # 47     ecut=    45.00 Ry     beta= 0.10
     Davidson diagonalization with overlap
     ethr =  8.04E-08,  avg # of iterations =  2.0

     negative rho (up, down):  0.000E+00 4.795E-03

     total cpu time spent up to now is    17208.3 secs

     total energy              =  -13654.32326354 Ry
     estimated scf accuracy    <       0.00228061 Ry

     total magnetization       =   130.24 Bohr mag/cell
     absolute magnetization    =   138.48 Bohr mag/cell

     iteration # 48     ecut=    45.00 Ry     beta= 0.10
     Davidson diagonalization with overlap
     c_bands:  2 eigenvalues not converged
     ethr =  8.04E-08,  avg # of iterations =  3.5

     negative rho (up, down):  0.000E+00 4.972E-03

     total cpu time spent up to now is    17590.1 secs

     total energy              =  -13654.32311480 Ry
     estimated scf accuracy    <       0.00246395 Ry

     total magnetization       =   130.04 Bohr mag/cell
     absolute magnetization    =   138.22 Bohr mag/cell

     iteration # 49     ecut=    45.00 Ry     beta= 0.10
     Davidson diagonalization with overlap
     ethr =  8.04E-08,  avg # of iterations =  2.0

     negative rho (up, down):  0.000E+00 4.983E-03

     total cpu time spent up to now is    17969.5 secs

     total energy              =  -13654.32321705 Ry
     estimated scf accuracy    <       0.00021590 Ry

     total magnetization       =   130.05 Bohr mag/cell
     absolute magnetization    =   138.24 Bohr mag/cell

     iteration # 50     ecut=    45.00 Ry     beta= 0.10
     Davidson diagonalization with overlap
     ethr =  2.48E-08,  avg # of iterations =  1.9

     negative rho (up, down):  0.000E+00 4.989E-03

     total cpu time spent up to now is    18315.4 secs

     total energy              =  -13654.32330066 Ry
     estimated scf accuracy    <       0.00014970 Ry

     total magnetization       =   129.98 Bohr mag/cell
     absolute magnetization    =   138.16 Bohr mag/cell

     iteration # 51     ecut=    45.00 Ry     beta= 0.10
     Davidson diagonalization with overlap
     ethr =  1.72E-08,  avg # of iterations =  2.0

     negative rho (up, down):  0.000E+00 4.965E-03

     total cpu time spent up to now is    18680.5 secs

     total energy              =  -13654.32331836 Ry
     estimated scf accuracy    <       0.00022708 Ry

     total magnetization       =   130.05 Bohr mag/cell
     absolute magnetization    =   138.21 Bohr mag/cell

     iteration # 52     ecut=    45.00 Ry     beta= 0.10
     Davidson diagonalization with overlap
     ethr =  1.72E-08,  avg # of iterations =  1.3

     negative rho (up, down):  0.000E+00 4.979E-03

     total cpu time spent up to now is    19006.1 secs

     total energy              =  -13654.32330310 Ry
     estimated scf accuracy    <       0.00034138 Ry

     total magnetization       =   130.06 Bohr mag/cell
     absolute magnetization    =   138.22 Bohr mag/cell

     iteration # 53     ecut=    45.00 Ry     beta= 0.10
     Davidson diagonalization with overlap
     ethr =  1.72E-08,  avg # of iterations =  1.9

     negative rho (up, down):  0.000E+00 4.974E-03

     total cpu time spent up to now is    19365.7 secs

     total energy              =  -13654.32331034 Ry
     estimated scf accuracy    <       0.00032395 Ry

     total magnetization       =   130.00 Bohr mag/cell
     absolute magnetization    =   138.16 Bohr mag/cell

     iteration # 54     ecut=    45.00 Ry     beta= 0.10
     Davidson diagonalization with overlap
     ethr =  1.72E-08,  avg # of iterations =  2.0

     negative rho (up, down):  0.000E+00 5.006E-03

     total cpu time spent up to now is    19737.4 secs

     total energy              =  -13654.32333904 Ry
     estimated scf accuracy    <       0.00036788 Ry

     total magnetization       =   130.01 Bohr mag/cell
     absolute magnetization    =   138.16 Bohr mag/cell

     iteration # 55     ecut=    45.00 Ry     beta= 0.10
     Davidson diagonalization with overlap
     ethr =  1.72E-08,  avg # of iterations =  2.0

     negative rho (up, down):  0.000E+00 4.964E-03

     total cpu time spent up to now is    20104.3 secs

     total energy              =  -13654.32338645 Ry
     estimated scf accuracy    <       0.00010663 Ry

     total magnetization       =   130.04 Bohr mag/cell
     absolute magnetization    =   138.18 Bohr mag/cell

     iteration # 56     ecut=    45.00 Ry     beta= 0.10
     Davidson diagonalization with overlap
     ethr =  1.23E-08,  avg # of iterations =  1.9

     negative rho (up, down):  0.000E+00 4.958E-03

     total cpu time spent up to now is    20462.4 secs

     total energy              =  -13654.32341526 Ry
     estimated scf accuracy    <       0.00007987 Ry

     total magnetization       =   130.02 Bohr mag/cell
     absolute magnetization    =   138.15 Bohr mag/cell

     iteration # 57     ecut=    45.00 Ry     beta= 0.10
     Davidson diagonalization with overlap
     ethr =  9.18E-09,  avg # of iterations =  2.0

     negative rho (up, down):  0.000E+00 4.946E-03

     total cpu time spent up to now is    20826.9 secs

     total energy              =  -13654.32342442 Ry
     estimated scf accuracy    <       0.00016020 Ry

     total magnetization       =   130.03 Bohr mag/cell
     absolute magnetization    =   138.14 Bohr mag/cell

     iteration # 58     ecut=    45.00 Ry     beta= 0.10
     Davidson diagonalization with overlap
     ethr =  9.18E-09,  avg # of iterations =  2.0

     negative rho (up, down):  0.000E+00 4.948E-03

     total cpu time spent up to now is    21192.0 secs

     total energy              =  -13654.32342576 Ry
     estimated scf accuracy    <       0.00009867 Ry

     total magnetization       =   130.00 Bohr mag/cell
     absolute magnetization    =   138.11 Bohr mag/cell

     iteration # 59     ecut=    45.00 Ry     beta= 0.10
     Davidson diagonalization with overlap
     ethr =  9.18E-09,  avg # of iterations =  1.9

     negative rho (up, down):  0.000E+00 4.952E-03

     total cpu time spent up to now is    21547.1 secs

     total energy              =  -13654.32341680 Ry
     estimated scf accuracy    <       0.00014593 Ry

     total magnetization       =   130.00 Bohr mag/cell
     absolute magnetization    =   138.12 Bohr mag/cell

     iteration # 60     ecut=    45.00 Ry     beta= 0.10
     Davidson diagonalization with overlap
     ethr =  9.18E-09,  avg # of iterations =  2.0

     negative rho (up, down):  0.000E+00 4.950E-03

     total cpu time spent up to now is    21911.0 secs

     total energy              =  -13654.32343090 Ry
     estimated scf accuracy    <       0.00011004 Ry

     total magnetization       =   130.02 Bohr mag/cell
     absolute magnetization    =   138.13 Bohr mag/cell

     iteration # 61     ecut=    45.00 Ry     beta= 0.10
     Davidson diagonalization with overlap
     ethr =  9.18E-09,  avg # of iterations =  1.0

     negative rho (up, down):  0.000E+00 4.947E-03

     total cpu time spent up to now is    22224.6 secs

     total energy              =  -13654.32343267 Ry
     estimated scf accuracy    <       0.00010462 Ry

     total magnetization       =   130.03 Bohr mag/cell
     absolute magnetization    =   138.14 Bohr mag/cell

     iteration # 62     ecut=    45.00 Ry     beta= 0.10
     Davidson diagonalization with overlap
     ethr =  9.18E-09,  avg # of iterations =  1.0

     negative rho (up, down):  0.000E+00 4.940E-03

     total cpu time spent up to now is    22537.9 secs

     total energy              =  -13654.32343020 Ry
     estimated scf accuracy    <       0.00011032 Ry

     total magnetization       =   130.04 Bohr mag/cell
     absolute magnetization    =   138.15 Bohr mag/cell

     iteration # 63     ecut=    45.00 Ry     beta= 0.10
     Davidson diagonalization with overlap
     ethr =  9.18E-09,  avg # of iterations =  1.0

     negative rho (up, down):  0.000E+00 4.958E-03

     total cpu time spent up to now is    22850.5 secs

     total energy              =  -13654.32345330 Ry
     estimated scf accuracy    <       0.00011293 Ry

     total magnetization       =   130.01 Bohr mag/cell
     absolute magnetization    =   138.13 Bohr mag/cell

     iteration # 64     ecut=    45.00 Ry     beta= 0.10
     Davidson diagonalization with overlap
     ethr =  9.18E-09,  avg # of iterations =  1.1

     negative rho (up, down):  0.000E+00 4.948E-03

     total cpu time spent up to now is    23167.7 secs

     total energy              =  -13654.32345414 Ry
     estimated scf accuracy    <       0.00011700 Ry

     total magnetization       =   130.01 Bohr mag/cell
     absolute magnetization    =   138.12 Bohr mag/cell

     iteration # 65     ecut=    45.00 Ry     beta= 0.10
     Davidson diagonalization with overlap
     ethr =  9.18E-09,  avg # of iterations =  1.0

     negative rho (up, down):  0.000E+00 4.953E-03

     total cpu time spent up to now is    23480.2 secs

     total energy              =  -13654.32347505 Ry
     estimated scf accuracy    <       0.00015462 Ry

     total magnetization       =   130.02 Bohr mag/cell
     absolute magnetization    =   138.12 Bohr mag/cell

     iteration # 66     ecut=    45.00 Ry     beta= 0.10
     Davidson diagonalization with overlap
     ethr =  9.18E-09,  avg # of iterations =  2.0

     negative rho (up, down):  0.000E+00 4.945E-03

     total cpu time spent up to now is    23854.5 secs

     total energy              =  -13654.32345345 Ry
     estimated scf accuracy    <       0.00037379 Ry

     total magnetization       =   129.98 Bohr mag/cell
     absolute magnetization    =   138.07 Bohr mag/cell

     iteration # 67     ecut=    45.00 Ry     beta= 0.10
     Davidson diagonalization with overlap
     ethr =  9.18E-09,  avg # of iterations =  2.0

     negative rho (up, down):  0.000E+00 4.954E-03

     total cpu time spent up to now is    24228.9 secs

     total energy              =  -13654.32345091 Ry
     estimated scf accuracy    <       0.00012610 Ry

     total magnetization       =   130.02 Bohr mag/cell
     absolute magnetization    =   138.12 Bohr mag/cell

     iteration # 68     ecut=    45.00 Ry     beta= 0.10
     Davidson diagonalization with overlap
     ethr =  9.18E-09,  avg # of iterations =  1.0

     negative rho (up, down):  0.000E+00 4.912E-03

     total cpu time spent up to now is    24541.4 secs

     total energy              =  -13654.32348064 Ry
     estimated scf accuracy    <       0.00012305 Ry

     total magnetization       =   130.04 Bohr mag/cell
     absolute magnetization    =   138.14 Bohr mag/cell

     iteration # 69     ecut=    45.00 Ry     beta= 0.10
     Davidson diagonalization with overlap
     ethr =  9.18E-09,  avg # of iterations =  1.5

     negative rho (up, down):  0.000E+00 4.900E-03

     total cpu time spent up to now is    24877.8 secs

     total energy              =  -13654.32349163 Ry
     estimated scf accuracy    <       0.00012028 Ry

     total magnetization       =   130.00 Bohr mag/cell
     absolute magnetization    =   138.09 Bohr mag/cell

     iteration # 70     ecut=    45.00 Ry     beta= 0.10
     Davidson diagonalization with overlap
     ethr =  9.18E-09,  avg # of iterations =  1.0

     negative rho (up, down):  0.000E+00 4.897E-03

     total cpu time spent up to now is    25190.4 secs

     total energy              =  -13654.32349867 Ry
     estimated scf accuracy    <       0.00013636 Ry

     total magnetization       =   129.97 Bohr mag/cell
     absolute magnetization    =   138.05 Bohr mag/cell

     iteration # 71     ecut=    45.00 Ry     beta= 0.10
     Davidson diagonalization with overlap
     ethr =  9.18E-09,  avg # of iterations =  2.0

     negative rho (up, down):  0.000E+00 4.940E-03

     total cpu time spent up to now is    25561.8 secs

     total energy              =  -13654.32348366 Ry
     estimated scf accuracy    <       0.00026475 Ry

     total magnetization       =   129.99 Bohr mag/cell
     absolute magnetization    =   138.07 Bohr mag/cell

     iteration # 72     ecut=    45.00 Ry     beta= 0.10
     Davidson diagonalization with overlap
     ethr =  9.18E-09,  avg # of iterations =  2.0

     negative rho (up, down):  0.000E+00 4.872E-03

     total cpu time spent up to now is    25930.7 secs

     total energy              =  -13654.32349824 Ry
     estimated scf accuracy    <       0.00026905 Ry

     total magnetization       =   129.97 Bohr mag/cell
     absolute magnetization    =   138.05 Bohr mag/cell

     iteration # 73     ecut=    45.00 Ry     beta= 0.10
     Davidson diagonalization with overlap
