 ANIMSTEPS   7
 CRYSTAL 
 PRIMVEC 
  5.7320475485  0.0000000000  0.0000000000
  0.0000000000  5.7320475485  0.0000000000
  0.0000000000  0.0000000000  5.7320475485
 PRIMCOORD   1
   15  1
Ni    1.4330118871    1.4330118871    1.4330118871   -0.0059815628   -0.0059815628   -0.0059815628
Fe    2.8660237743    0.0000000000    0.0000000000   -0.0061293727    0.0016331857    0.0016331857
Fe    0.0000000000    2.8660237743    0.0000000000    0.0016331857   -0.0061293727    0.0016331857
Fe    2.8660237743    2.8660237743    0.0000000000    0.0018093630    0.0018093630   -0.0013712926
Fe    0.0000000000    0.0000000000    2.8660237743    0.0016331857    0.0016331857   -0.0061293727
Fe    2.8660237743    0.0000000000    2.8660237743    0.0018093630   -0.0013712926    0.0018093630
Fe    0.0000000000    2.8660237743    2.8660237743   -0.0013712926    0.0018093630    0.0018093630
Fe    2.8660237743    2.8660237743    2.8660237743   -0.0061259705   -0.0061259705   -0.0061259705
Fe    4.2990356614    1.4330118871    1.4330118871    0.0124390423   -0.0097174545   -0.0097174545
Fe    1.4330118871    4.2990356614    1.4330118871   -0.0097174545    0.0124390423   -0.0097174545
Fe    4.2990356614    4.2990356614    1.4330118871    0.0080670649    0.0080670649   -0.0110738854
Fe    1.4330118871    1.4330118871    4.2990356614   -0.0097174545   -0.0097174545    0.0124390423
Fe    4.2990356614    1.4330118871    4.2990356614    0.0080670649   -0.0110738854    0.0080670649
Fe    1.4330118871    4.2990356614    4.2990356614   -0.0110738854    0.0080670649    0.0080670649
Fe    4.2990356614    4.2990356614    4.2990356614    0.0146587235    0.0146587235    0.0146587235
 PRIMCOORD   2
   15  1
Ni    1.1575962124    1.1575962124    1.1575962124    0.0235284022    0.0235284022    0.0235284022
Fe    2.8491630620   -0.0246502580   -0.0246502580   -0.0044783799   -0.0015125227   -0.0015125227
Fe   -0.0246502580    2.8491630620   -0.0246502580   -0.0015125227   -0.0044783799   -0.0015125227
Fe    2.8367885667    2.8367885667   -0.0109841730    0.0014577532    0.0014577532   -0.0035441356
Fe   -0.0246502580   -0.0246502580    2.8491630620   -0.0015125227   -0.0015125227   -0.0044783799
Fe    2.8367885667   -0.0109841730    2.8367885667    0.0014577532   -0.0035441356    0.0014577532
Fe   -0.0109841730    2.8367885667    2.8367885667   -0.0035441356    0.0014577532    0.0014577532
Fe    2.7885076485    2.7885076485    2.7885076485   -0.0005672188   -0.0005672188   -0.0005672188
Fe    4.2823704246    1.3907752518    1.3907752518   -0.0014555455   -0.0022904936   -0.0022904936
Fe    1.3907752518    4.2823704246    1.3907752518   -0.0022904936   -0.0014555455   -0.0022904936
Fe    4.3269959462    4.3269959462    1.3697369308   -0.0026581056   -0.0026581056   -0.0017623746
Fe    1.3907752518    1.3907752518    4.2823704246   -0.0022904936   -0.0022904936   -0.0014555455
Fe    4.3269959462    1.3697369308    4.3269959462   -0.0026581056   -0.0017623746   -0.0026581056
Fe    1.3697369308    4.3269959462    4.3269959462   -0.0017623746   -0.0026581056   -0.0026581056
Fe    4.3286785203    4.3286785203    4.3286785203   -0.0017140103   -0.0017140103   -0.0017140103
 PRIMCOORD   3
   15  1
Ni    0.9176411626    0.9176411626    0.9176411626    0.0111780499    0.0111780499    0.0111780499
Fe    2.8877944731   -0.0157856454   -0.0157856454   -0.0001478066   -0.0016010859   -0.0016010859
Fe   -0.0157856454    2.8877944731   -0.0157856454   -0.0016010859   -0.0001478066   -0.0016010859
Fe    2.8184114065    2.8184114065    0.0188653063    0.0005943970    0.0005943970   -0.0011723167
Fe   -0.0157856454   -0.0157856454    2.8877944731   -0.0016010859   -0.0016010859   -0.0001478066
Fe    2.8184114065    0.0188653063    2.8184114065    0.0005943970   -0.0011723167    0.0005943970
Fe    0.0188653063    2.8184114065    2.8184114065   -0.0011723167    0.0005943970    0.0005943970
Fe    2.7906494231    2.7906494231    2.7906494231   -0.0007363563   -0.0007363563   -0.0007363563
Fe    4.2915182366    1.4089973112    1.4089973112    0.0002319043   -0.0009636516   -0.0009636516
Fe    1.4089973112    4.2915182366    1.4089973112   -0.0009636516    0.0002319043   -0.0009636516
Fe    4.3470170831    4.3470170831    1.3790760310   -0.0011465845   -0.0011465845   -0.0012587067
Fe    1.4089973112    1.4089973112    4.2915182366   -0.0009636516   -0.0009636516    0.0002319043
Fe    4.3470170831    1.3790760310    4.3470170831   -0.0011465845   -0.0012587067   -0.0011465845
Fe    1.3790760310    4.3470170831    4.3470170831   -0.0012587067   -0.0011465845   -0.0011465845
Fe    4.3351600443    4.3351600443    4.3351600443   -0.0018609180   -0.0018609180   -0.0018609180
 PRIMCOORD   4
   15  1
Ni    0.7151772629    0.7151772629    0.7151772629   -0.0000823166   -0.0000823166   -0.0000823166
Fe    2.8868693654    0.0046089673    0.0046089673    0.0001381004   -0.0003242206   -0.0003242206
Fe    0.0046089673    2.8868693654    0.0046089673   -0.0003242206    0.0001381004   -0.0003242206
Fe    2.8115431733    2.8115431733    0.0380350518    0.0004853187    0.0004853187    0.0002500367
Fe    0.0046089673    0.0046089673    2.8868693654   -0.0003242206   -0.0003242206    0.0001381004
Fe    2.8115431733    0.0380350518    2.8115431733    0.0004853187    0.0002500367    0.0004853187
Fe    0.0380350518    2.8115431733    2.8115431733    0.0002500367    0.0004853187    0.0004853187
Fe    2.8120935395    2.8120935395    2.8120935395    0.0006298504    0.0006298504    0.0006298504
Fe    4.2778585558    1.4287459067    1.4287459067   -0.0001295701    0.0003133254    0.0003133254
Fe    1.4287459067    4.2778585558    1.4287459067    0.0003133254   -0.0001295701    0.0003133254
Fe    4.3533658190    4.3533658190    1.3953982240   -0.0004336086   -0.0004336086   -0.0002780485
Fe    1.4287459067    1.4287459067    4.2778585558    0.0003133254    0.0003133254   -0.0001295701
Fe    4.3533658190    1.3953982240    4.3533658190   -0.0004336086   -0.0002780485   -0.0004336086
Fe    1.3953982240    4.3533658190    4.3533658190   -0.0002780485   -0.0004336086   -0.0004336086
Fe    4.3533807182    4.3533807182    4.3533807182   -0.0006096823   -0.0006096823   -0.0006096823
 PRIMCOORD   5
   15  1
Ni    0.5102702455    0.5102702455    0.5102702455   -0.0113843738   -0.0113843738   -0.0113843738
Fe    2.8734402244    0.0231398039    0.0231398039   -0.0002434667    0.0011253503    0.0011253503
Fe    0.0231398039    2.8734402244    0.0231398039    0.0011253503   -0.0002434667    0.0011253503
Fe    2.8196700294    2.8196700294    0.0520175289    0.0007481332    0.0007481332    0.0014366130
Fe    0.0231398039    0.0231398039    2.8734402244    0.0011253503    0.0011253503   -0.0002434667
Fe    2.8196700294    0.0520175289    2.8196700294    0.0007481332    0.0014366130    0.0007481332
Fe    0.0520175289    2.8196700294    2.8196700294    0.0014366130    0.0007481332    0.0007481332
Fe    2.8280688609    2.8280688609    2.8280688609    0.0017979988    0.0017979988    0.0017979988
Fe    4.2777042287    1.4485566852    1.4485566852    0.0001524325    0.0015580757    0.0015580757
Fe    1.4485566852    4.2777042287    1.4485566852    0.0015580757    0.0001524325    0.0015580757
Fe    4.3445536993    4.3445536993    1.4147701036   -0.0003783785   -0.0003783785    0.0011046735
Fe    1.4485566852    1.4485566852    4.2777042287    0.0015580757    0.0015580757    0.0001524325
Fe    4.3445536993    1.4147701036    4.3445536993   -0.0003783785    0.0011046735   -0.0003783785
Fe    1.4147701036    4.3445536993    4.3445536993    0.0011046735   -0.0003783785   -0.0003783785
Fe    4.3728446849    4.3728446849    4.3728446849    0.0010297613    0.0010297613    0.0010297613
 PRIMCOORD   6
   15  1
Ni    0.2722186880    0.2722186880    0.2722186880   -0.0225624299   -0.0225624299   -0.0225624299
Fe    2.8826729679    0.0423091823    0.0423091823    0.0014120919    0.0022934946    0.0022934946
Fe    0.0423091823    2.8826729679    0.0423091823    0.0022934946    0.0014120919    0.0022934946
Fe    2.8395300527    2.8395300527    0.0625066833    0.0023999634    0.0023999634    0.0017480845
Fe    0.0423091823    0.0423091823    2.8826729679    0.0022934946    0.0022934946    0.0014120919
Fe    2.8395300527    0.0625066833    2.8395300527    0.0023999634    0.0017480845    0.0023999634
Fe    0.0625066833    2.8395300527    2.8395300527    0.0017480845    0.0023999634    0.0023999634
Fe    2.8358716606    2.8358716606    2.8358716606    0.0015340375    0.0015340375    0.0015340375
Fe    4.3170241352    1.4575195814    1.4575195814    0.0042611109    0.0014073809    0.0014073809
Fe    1.4575195814    4.3170241352    1.4575195814    0.0014073809    0.0042611109    0.0014073809
Fe    4.3271165706    4.3271165706    1.4449870374   -0.0012970036   -0.0012970036    0.0033117354
Fe    1.4575195814    1.4575195814    4.3170241352    0.0014073809    0.0014073809    0.0042611109
Fe    4.3271165706    1.4449870374    4.3271165706   -0.0012970036    0.0033117354   -0.0012970036
Fe    1.4449870374    4.3271165706    4.3271165706    0.0033117354   -0.0012970036   -0.0012970036
Fe    4.3753826723    4.3753826723    4.3753826723    0.0006876992    0.0006876992    0.0006876992
 PRIMCOORD   7
   15  1
Ni    0.0000000000    0.0000000000    0.0000000000    0.0063962378    0.0063962378    0.0063962378
Fe    2.8660237743    0.0000000000    0.0000000000   -0.0125380805    0.0097332060    0.0097332060
Fe    0.0000000000    2.8660237743    0.0000000000    0.0097332060   -0.0125380805    0.0097332060
Fe    2.8660237743    2.8660237743    0.0000000000   -0.0081482396   -0.0081482396    0.0110846841
Fe    0.0000000000    0.0000000000    2.8660237743    0.0097332060    0.0097332060   -0.0125380805
Fe    2.8660237743    0.0000000000    2.8660237743   -0.0081482396    0.0110846841   -0.0081482396
Fe    0.0000000000    2.8660237743    2.8660237743    0.0110846841   -0.0081482396   -0.0081482396
Fe    2.8660237743    2.8660237743    2.8660237743   -0.0147455873   -0.0147455873   -0.0147455873
Fe    4.2990356614    1.4330118871    1.4330118871    0.0061568980   -0.0017001271   -0.0017001271
Fe    1.4330118871    4.2990356614    1.4330118871   -0.0017001271    0.0061568980   -0.0017001271
Fe    4.2990356614    4.2990356614    1.4330118871   -0.0017673171   -0.0017673171    0.0012781087
Fe    1.4330118871    1.4330118871    4.2990356614   -0.0017001271   -0.0017001271    0.0061568980
Fe    4.2990356614    1.4330118871    4.2990356614   -0.0017673171    0.0012781087   -0.0017673171
Fe    1.4330118871    4.2990356614    4.2990356614    0.0012781087   -0.0017673171   -0.0017673171
Fe    4.2990356614    4.2990356614    4.2990356614    0.0061326947    0.0061326947    0.0061326947
