   15

Ni    1.4330118871    1.4330118871    1.4330118871
Fe    2.8660237743    0.0000000000    0.0000000000
Fe    0.0000000000    2.8660237743    0.0000000000
Fe    2.8660237743    2.8660237743    0.0000000000
Fe    0.0000000000    0.0000000000    2.8660237743
Fe    2.8660237743    0.0000000000    2.8660237743
Fe    0.0000000000    2.8660237743    2.8660237743
Fe    2.8660237743    2.8660237743    2.8660237743
Fe    4.2990356614    1.4330118871    1.4330118871
Fe    1.4330118871    4.2990356614    1.4330118871
Fe    4.2990356614    4.2990356614    1.4330118871
Fe    1.4330118871    1.4330118871    4.2990356614
Fe    4.2990356614    1.4330118871    4.2990356614
Fe    1.4330118871    4.2990356614    4.2990356614
Fe    4.2990356614    4.2990356614    4.2990356614
   15

Ni    1.1575962124    1.1575962124    1.1575962124
Fe    2.8491630620   -0.0246502580   -0.0246502580
Fe   -0.0246502580    2.8491630620   -0.0246502580
Fe    2.8367885667    2.8367885667   -0.0109841730
Fe   -0.0246502580   -0.0246502580    2.8491630620
Fe    2.8367885667   -0.0109841730    2.8367885667
Fe   -0.0109841730    2.8367885667    2.8367885667
Fe    2.7885076485    2.7885076485    2.7885076485
Fe    4.2823704246    1.3907752518    1.3907752518
Fe    1.3907752518    4.2823704246    1.3907752518
Fe    4.3269959462    4.3269959462    1.3697369308
Fe    1.3907752518    1.3907752518    4.2823704246
Fe    4.3269959462    1.3697369308    4.3269959462
Fe    1.3697369308    4.3269959462    4.3269959462
Fe    4.3286785203    4.3286785203    4.3286785203
   15

Ni    0.9176411626    0.9176411626    0.9176411626
Fe    2.8877944731   -0.0157856454   -0.0157856454
Fe   -0.0157856454    2.8877944731   -0.0157856454
Fe    2.8184114065    2.8184114065    0.0188653063
Fe   -0.0157856454   -0.0157856454    2.8877944731
Fe    2.8184114065    0.0188653063    2.8184114065
Fe    0.0188653063    2.8184114065    2.8184114065
Fe    2.7906494231    2.7906494231    2.7906494231
Fe    4.2915182366    1.4089973112    1.4089973112
Fe    1.4089973112    4.2915182366    1.4089973112
Fe    4.3470170831    4.3470170831    1.3790760310
Fe    1.4089973112    1.4089973112    4.2915182366
Fe    4.3470170831    1.3790760310    4.3470170831
Fe    1.3790760310    4.3470170831    4.3470170831
Fe    4.3351600443    4.3351600443    4.3351600443
   15

Ni    0.7151772629    0.7151772629    0.7151772629
Fe    2.8868693654    0.0046089673    0.0046089673
Fe    0.0046089673    2.8868693654    0.0046089673
Fe    2.8115431733    2.8115431733    0.0380350518
Fe    0.0046089673    0.0046089673    2.8868693654
Fe    2.8115431733    0.0380350518    2.8115431733
Fe    0.0380350518    2.8115431733    2.8115431733
Fe    2.8120935395    2.8120935395    2.8120935395
Fe    4.2778585558    1.4287459067    1.4287459067
Fe    1.4287459067    4.2778585558    1.4287459067
Fe    4.3533658190    4.3533658190    1.3953982240
Fe    1.4287459067    1.4287459067    4.2778585558
Fe    4.3533658190    1.3953982240    4.3533658190
Fe    1.3953982240    4.3533658190    4.3533658190
Fe    4.3533807182    4.3533807182    4.3533807182
   15

Ni    0.5102702455    0.5102702455    0.5102702455
Fe    2.8734402244    0.0231398039    0.0231398039
Fe    0.0231398039    2.8734402244    0.0231398039
Fe    2.8196700294    2.8196700294    0.0520175289
Fe    0.0231398039    0.0231398039    2.8734402244
Fe    2.8196700294    0.0520175289    2.8196700294
Fe    0.0520175289    2.8196700294    2.8196700294
Fe    2.8280688609    2.8280688609    2.8280688609
Fe    4.2777042287    1.4485566852    1.4485566852
Fe    1.4485566852    4.2777042287    1.4485566852
Fe    4.3445536993    4.3445536993    1.4147701036
Fe    1.4485566852    1.4485566852    4.2777042287
Fe    4.3445536993    1.4147701036    4.3445536993
Fe    1.4147701036    4.3445536993    4.3445536993
Fe    4.3728446849    4.3728446849    4.3728446849
   15

Ni    0.2722186880    0.2722186880    0.2722186880
Fe    2.8826729679    0.0423091823    0.0423091823
Fe    0.0423091823    2.8826729679    0.0423091823
Fe    2.8395300527    2.8395300527    0.0625066833
Fe    0.0423091823    0.0423091823    2.8826729679
Fe    2.8395300527    0.0625066833    2.8395300527
Fe    0.0625066833    2.8395300527    2.8395300527
Fe    2.8358716606    2.8358716606    2.8358716606
Fe    4.3170241352    1.4575195814    1.4575195814
Fe    1.4575195814    4.3170241352    1.4575195814
Fe    4.3271165706    4.3271165706    1.4449870374
Fe    1.4575195814    1.4575195814    4.3170241352
Fe    4.3271165706    1.4449870374    4.3271165706
Fe    1.4449870374    4.3271165706    4.3271165706
Fe    4.3753826723    4.3753826723    4.3753826723
   15

Ni    0.0000000000    0.0000000000    0.0000000000
Fe    2.8660237743    0.0000000000    0.0000000000
Fe    0.0000000000    2.8660237743    0.0000000000
Fe    2.8660237743    2.8660237743    0.0000000000
Fe    0.0000000000    0.0000000000    2.8660237743
Fe    2.8660237743    0.0000000000    2.8660237743
Fe    0.0000000000    2.8660237743    2.8660237743
Fe    2.8660237743    2.8660237743    2.8660237743
Fe    4.2990356614    1.4330118871    1.4330118871
Fe    1.4330118871    4.2990356614    1.4330118871
Fe    4.2990356614    4.2990356614    1.4330118871
Fe    1.4330118871    1.4330118871    4.2990356614
Fe    4.2990356614    1.4330118871    4.2990356614
Fe    1.4330118871    4.2990356614    4.2990356614
Fe    4.2990356614    4.2990356614    4.2990356614
