
     Program PWSCF v.7.5 starts on 20Jun2026 at 13: 5:17 

     This program is part of the open-source Quantum ESPRESSO suite
     for quantum simulation of materials; please cite
         "P. Giannozzi et al., J. Phys.:Condens. Matter 21 395502 (2009);
         "P. Giannozzi et al., J. Phys.:Condens. Matter 29 465901 (2017);
         "P. Giannozzi et al., J. Chem. Phys. 152 154105 (2020);
          URL http://www.quantum-espresso.org", 
     in publications or presentations arising from this work. More details at
     http://www.quantum-espresso.org/quote

     Parallel version (MPI & OpenMP), running on       4 processor cores
     Number of MPI processes:                 4
     Threads/MPI process:                     1

     MPI processes distributed on     1 nodes
     29205 MiB available memory on the printing compute node when the environment starts

     Reading input from fe54_5mo_clustered.scf.in

     Current dimensions of program PWSCF are:
     Max number of different atomic species (ntypx) = 10
     Max number of k-points (npk) =  40000
     Max angular momentum in pseudopotentials (lmaxx) =  4
     file Fe.pbe-spn-rrkjus_psl.1.0.0.UPF: wavefunction(s)  3P 3D renormalized
     file Mo.pbe-spn-rrkjus_psl.1.0.0.UPF: wavefunction(s)  4S renormalized

     R & G space division:  proc/nbgrp/npool/nimage =       4
     Subspace diagonalization in iterative solution of the eigenvalue problem:
     one sub-group per band group will be used
     ELPA distributed-memory algorithm (size of sub-group:  2*  2 procs)


     Parallelization info
     --------------------
     sticks:   dense  smooth     PW     G-vecs:    dense   smooth      PW
     Min        1893     944    251               123669    43650    6027
     Max        1894     945    252               123672    43653    6030
     Sum        7573    3777   1005               494679   174605   24111

     Using Slab Decomposition



     bravais-lattice index     =            1
     lattice parameter (alat)  =      16.2480  a.u.
     unit-cell volume          =    4289.4314 (a.u.)^3
     number of atoms/cell      =           54
     number of atomic types    =            2
     number of electrons       =       854.00
     number of Kohn-Sham states=          512
     kinetic-energy cutoff     =      45.0000  Ry
     charge density cutoff     =     360.0000  Ry
     scf convergence threshold =      1.0E-06
     mixing beta               =       0.2000
     number of iterations used =            8  local-TF  mixing
     Exchange-correlation= PBE
                           (   1   4   3   4   0   0   0)

     celldm(1)=  16.248000  celldm(2)=   0.000000  celldm(3)=   0.000000
     celldm(4)=   0.000000  celldm(5)=   0.000000  celldm(6)=   0.000000

     crystal axes: (cart. coord. in units of alat)
               a(1) = (   1.000000   0.000000   0.000000 )  
               a(2) = (   0.000000   1.000000   0.000000 )  
               a(3) = (   0.000000   0.000000   1.000000 )  

     reciprocal axes: (cart. coord. in units 2 pi/alat)
               b(1) = (  1.000000  0.000000  0.000000 )  
               b(2) = (  0.000000  1.000000  0.000000 )  
               b(3) = (  0.000000  0.000000  1.000000 )  


     PseudoPot. # 1 for Fe read from file:
     ../pseudo/Fe.pbe-spn-rrkjus_psl.1.0.0.UPF
     MD5 check sum: 72ea77fed8e64ab3a2ccf2804dfc1862
     Pseudo is Ultrasoft + core correction, Zval = 16.0
     Generated using &quot;atomic&quot; code by A. Dal Corso  v.6.3
     Using radial grid of 1191 points,  6 beta functions with: 
                l(1) =   0
                l(2) =   0
                l(3) =   1
                l(4) =   1
                l(5) =   2
                l(6) =   2
     Q(r) pseudized with 0 coefficients 


     PseudoPot. # 2 for Mo read from file:
     ../pseudo/Mo.pbe-spn-rrkjus_psl.1.0.0.UPF
     MD5 check sum: 03f09b12e49601d1a456a78ce8b2d514
     Pseudo is Ultrasoft + core correction, Zval = 14.0
     Generated using &quot;atomic&quot; code by A. Dal Corso  v.6.3
     Using radial grid of 1229 points,  6 beta functions with: 
                l(1) =   0
                l(2) =   0
                l(3) =   1
                l(4) =   1
                l(5) =   2
                l(6) =   2
     Q(r) pseudized with 0 coefficients 


     atomic species   valence    mass     pseudopotential
     Fe               16.00    55.84500     Fe( 1.00)
     Mo               14.00    95.95000     Mo( 1.00)

     Starting magnetic structure 
     atomic species   magnetization
     Fe              0.500
     Mo              0.000

      8 Sym. Ops. (no inversion) found



   Cartesian axes

     site n.     atom                  positions (alat units)
         1        Mo     tau(   1) = (   0.0000000   0.0000000   0.0000000  )
         2        Mo     tau(   2) = (   0.1666670   0.1666670   0.1666670  )
         3        Fe     tau(   3) = (   0.0000000   0.0000000   0.3333330  )
         4        Fe     tau(   4) = (   0.1666670   0.1666670   0.5000000  )
         5        Fe     tau(   5) = (   0.0000000   0.0000000   0.6666670  )
         6        Mo     tau(   6) = (   0.1666670   0.1666670   0.8333330  )
         7        Fe     tau(   7) = (   0.0000000   0.3333330   0.0000000  )
         8        Fe     tau(   8) = (   0.1666670   0.5000000   0.1666670  )
         9        Fe     tau(   9) = (   0.0000000   0.3333330   0.3333330  )
        10        Fe     tau(  10) = (   0.1666670   0.5000000   0.5000000  )
        11        Fe     tau(  11) = (   0.0000000   0.3333330   0.6666670  )
        12        Fe     tau(  12) = (   0.1666670   0.5000000   0.8333330  )
        13        Fe     tau(  13) = (   0.0000000   0.6666670   0.0000000  )
        14        Mo     tau(  14) = (   0.1666670   0.8333330   0.1666670  )
        15        Fe     tau(  15) = (   0.0000000   0.6666670   0.3333330  )
        16        Fe     tau(  16) = (   0.1666670   0.8333330   0.5000000  )
        17        Fe     tau(  17) = (   0.0000000   0.6666670   0.6666670  )
        18        Mo     tau(  18) = (   0.1666670   0.8333330   0.8333330  )
        19        Fe     tau(  19) = (   0.3333330   0.0000000   0.0000000  )
        20        Fe     tau(  20) = (   0.5000000   0.1666670   0.1666670  )
        21        Fe     tau(  21) = (   0.3333330   0.0000000   0.3333330  )
        22        Fe     tau(  22) = (   0.5000000   0.1666670   0.5000000  )
        23        Fe     tau(  23) = (   0.3333330   0.0000000   0.6666670  )
        24        Fe     tau(  24) = (   0.5000000   0.1666670   0.8333330  )
        25        Fe     tau(  25) = (   0.3333330   0.3333330   0.0000000  )
        26        Fe     tau(  26) = (   0.5000000   0.5000000   0.1666670  )
        27        Fe     tau(  27) = (   0.3333330   0.3333330   0.3333330  )
        28        Fe     tau(  28) = (   0.5000000   0.5000000   0.5000000  )
        29        Fe     tau(  29) = (   0.3333330   0.3333330   0.6666670  )
        30        Fe     tau(  30) = (   0.5000000   0.5000000   0.8333330  )
        31        Fe     tau(  31) = (   0.3333330   0.6666670   0.0000000  )
        32        Fe     tau(  32) = (   0.5000000   0.8333330   0.1666670  )
        33        Fe     tau(  33) = (   0.3333330   0.6666670   0.3333330  )
        34        Fe     tau(  34) = (   0.5000000   0.8333330   0.5000000  )
        35        Fe     tau(  35) = (   0.3333330   0.6666670   0.6666670  )
        36        Fe     tau(  36) = (   0.5000000   0.8333330   0.8333330  )
        37        Fe     tau(  37) = (   0.6666670   0.0000000   0.0000000  )
        38        Fe     tau(  38) = (   0.8333330   0.1666670   0.1666670  )
        39        Fe     tau(  39) = (   0.6666670   0.0000000   0.3333330  )
        40        Fe     tau(  40) = (   0.8333330   0.1666670   0.5000000  )
        41        Fe     tau(  41) = (   0.6666670   0.0000000   0.6666670  )
        42        Fe     tau(  42) = (   0.8333330   0.1666670   0.8333330  )
        43        Fe     tau(  43) = (   0.6666670   0.3333330   0.0000000  )
        44        Fe     tau(  44) = (   0.8333330   0.5000000   0.1666670  )
        45        Fe     tau(  45) = (   0.6666670   0.3333330   0.3333330  )
        46        Fe     tau(  46) = (   0.8333330   0.5000000   0.5000000  )
        47        Fe     tau(  47) = (   0.6666670   0.3333330   0.6666670  )
        48        Fe     tau(  48) = (   0.8333330   0.5000000   0.8333330  )
        49        Fe     tau(  49) = (   0.6666670   0.6666670   0.0000000  )
        50        Fe     tau(  50) = (   0.8333330   0.8333330   0.1666670  )
        51        Fe     tau(  51) = (   0.6666670   0.6666670   0.3333330  )
        52        Fe     tau(  52) = (   0.8333330   0.8333330   0.5000000  )
        53        Fe     tau(  53) = (   0.6666670   0.6666670   0.6666670  )
        54        Fe     tau(  54) = (   0.8333330   0.8333330   0.8333330  )

     number of k points=     6  Marzari-Vanderbilt smearing, width (Ry)=  0.0200
                       cart. coord. in units 2pi/alat
        k(    1) = (   0.0000000   0.0000000   0.0000000), wk =   0.0370370
        k(    2) = (   0.0000000   0.0000000   0.3333333), wk =   0.1481481
        k(    3) = (   0.0000000   0.3333333   0.3333333), wk =   0.1481481
        k(    4) = (   0.3333333   0.3333333   0.3333333), wk =   0.2962963
        k(    5) = (   0.3333333   0.0000000   0.0000000), wk =   0.0740741
        k(    6) = (   0.3333333  -0.3333333   0.0000000), wk =   0.2962963

     Dense  grid:   494679 G-vectors     FFT dimensions: ( 100, 100, 100)

     Smooth grid:   174605 G-vectors     FFT dimensions: (  72,  72,  72)

     Estimated max dynamical RAM per process >       1.18 GB

     Estimated total dynamical RAM >       4.70 GB

     Check: negative core charge=   -0.000004
     Generating pointlists ...
     new r_m :   0.1191 (alat units)  1.9348 (a.u.) for type    1
     new r_m :   0.1191 (alat units)  1.9348 (a.u.) for type    2

     Initial potential from superposition of free atoms

     starting charge     853.9741, renormalised to     854.0000
     Starting wfcs are  540 randomized atomic wfcs

     total cpu time spent up to now is       70.3 secs

     per-process dynamical memory:   756.0 Mb

     Self-consistent Calculation

     iteration #  1     ecut=    45.00 Ry     beta= 0.20
     Davidson diagonalization with overlap
     ethr =  1.00E-02,  avg # of iterations =  4.0

     total cpu time spent up to now is      327.2 secs

     total energy              =  -12822.24749913 Ry
     estimated scf accuracy    <      46.12767627 Ry

     total magnetization       =   170.21 Bohr mag/cell
     absolute magnetization    =   173.32 Bohr mag/cell

     iteration #  2     ecut=    45.00 Ry     beta= 0.20
     Davidson diagonalization with overlap
     ethr =  5.40E-03,  avg # of iterations =  2.7

     negative rho (up, down):  0.000E+00 2.183E-03

     total cpu time spent up to now is      528.2 secs

     total energy              =  -12831.50092448 Ry
     estimated scf accuracy    <      23.29753559 Ry

     total magnetization       =   163.53 Bohr mag/cell
     absolute magnetization    =   168.14 Bohr mag/cell

     iteration #  3     ecut=    45.00 Ry     beta= 0.20
     Davidson diagonalization with overlap
     ethr =  2.73E-03,  avg # of iterations =  4.5

     negative rho (up, down):  0.000E+00 4.299E-03

     total cpu time spent up to now is      739.4 secs

     total energy              =  -12834.61259971 Ry
     estimated scf accuracy    <       8.60361217 Ry

     total magnetization       =   143.07 Bohr mag/cell
     absolute magnetization    =   153.66 Bohr mag/cell

     iteration #  4     ecut=    45.00 Ry     beta= 0.20
     Davidson diagonalization with overlap
     ethr =  1.01E-03,  avg # of iterations =  1.8

     negative rho (up, down):  0.000E+00 1.504E-02

     total cpu time spent up to now is      947.2 secs

     total energy              =  -12836.88911927 Ry
     estimated scf accuracy    <       4.29039546 Ry

     total magnetization       =   138.08 Bohr mag/cell
     absolute magnetization    =   150.14 Bohr mag/cell

     iteration #  5     ecut=    45.00 Ry     beta= 0.20
     Davidson diagonalization with overlap
     ethr =  5.02E-04,  avg # of iterations =  3.6

     negative rho (up, down):  0.000E+00 1.459E-02

     total cpu time spent up to now is     1169.9 secs

     total energy              =  -12837.72310710 Ry
     estimated scf accuracy    <       0.36734241 Ry

     total magnetization       =   118.21 Bohr mag/cell
     absolute magnetization    =   133.89 Bohr mag/cell

     iteration #  6     ecut=    45.00 Ry     beta= 0.20
     Davidson diagonalization with overlap
     ethr =  4.30E-05,  avg # of iterations = 10.7

     negative rho (up, down):  0.000E+00 1.150E-02

     total cpu time spent up to now is     1454.6 secs

     total energy              =  -12837.79738123 Ry
     estimated scf accuracy    <       0.12243651 Ry

     total magnetization       =   114.50 Bohr mag/cell
     absolute magnetization    =   129.02 Bohr mag/cell

     iteration #  7     ecut=    45.00 Ry     beta= 0.20
     Davidson diagonalization with overlap
     ethr =  1.43E-05,  avg # of iterations =  2.5

     negative rho (up, down):  0.000E+00 5.714E-03

     total cpu time spent up to now is     1667.9 secs

     total energy              =  -12837.83040201 Ry
     estimated scf accuracy    <       0.05001173 Ry

     total magnetization       =   112.98 Bohr mag/cell
     absolute magnetization    =   127.14 Bohr mag/cell

     iteration #  8     ecut=    45.00 Ry     beta= 0.20
     Davidson diagonalization with overlap
     ethr =  5.86E-06,  avg # of iterations =  5.8

     negative rho (up, down):  0.000E+00 4.003E-03

     total cpu time spent up to now is     1953.6 secs

     total energy              =  -12837.85179909 Ry
     estimated scf accuracy    <       0.02070518 Ry

     total magnetization       =   111.32 Bohr mag/cell
     absolute magnetization    =   124.54 Bohr mag/cell

     iteration #  9     ecut=    45.00 Ry     beta= 0.20
     Davidson diagonalization with overlap
     ethr =  2.42E-06,  avg # of iterations =  3.4

     negative rho (up, down):  0.000E+00 2.723E-03

     total cpu time spent up to now is     2173.0 secs

     total energy              =  -12837.85791515 Ry
     estimated scf accuracy    <       0.00533045 Ry

     total magnetization       =   111.16 Bohr mag/cell
     absolute magnetization    =   123.89 Bohr mag/cell

     iteration # 10     ecut=    45.00 Ry     beta= 0.20
     Davidson diagonalization with overlap
     ethr =  6.24E-07,  avg # of iterations =  7.8

     negative rho (up, down):  0.000E+00 2.533E-03

     total cpu time spent up to now is     2485.7 secs

     total energy              =  -12837.86251404 Ry
     estimated scf accuracy    <       0.00161714 Ry

     total magnetization       =   110.51 Bohr mag/cell
     absolute magnetization    =   122.56 Bohr mag/cell

     iteration # 11     ecut=    45.00 Ry     beta= 0.20
     Davidson diagonalization with overlap
     ethr =  1.89E-07,  avg # of iterations =  2.8

     negative rho (up, down):  0.000E+00 2.522E-03

     total cpu time spent up to now is     2716.2 secs

     total energy              =  -12837.86384625 Ry
     estimated scf accuracy    <       0.00072487 Ry

     total magnetization       =   110.42 Bohr mag/cell
     absolute magnetization    =   122.27 Bohr mag/cell

     iteration # 12     ecut=    45.00 Ry     beta= 0.20
     Davidson diagonalization with overlap
     ethr =  8.49E-08,  avg # of iterations =  3.2

     negative rho (up, down):  0.000E+00 2.521E-03

     total cpu time spent up to now is     2938.0 secs

     total energy              =  -12837.86449965 Ry
     estimated scf accuracy    <       0.00041176 Ry

     total magnetization       =   110.44 Bohr mag/cell
     absolute magnetization    =   122.17 Bohr mag/cell

     iteration # 13     ecut=    45.00 Ry     beta= 0.20
     Davidson diagonalization with overlap
     ethr =  4.82E-08,  avg # of iterations =  4.6

     negative rho (up, down):  0.000E+00 2.503E-03

     total cpu time spent up to now is     3208.3 secs

     total energy              =  -12837.86506002 Ry
     estimated scf accuracy    <       0.00012998 Ry

     total magnetization       =   110.40 Bohr mag/cell
     absolute magnetization    =   121.92 Bohr mag/cell

     iteration # 14     ecut=    45.00 Ry     beta= 0.20
     Davidson diagonalization with overlap
     ethr =  1.52E-08,  avg # of iterations =  3.7

     negative rho (up, down):  0.000E+00 2.510E-03

     total cpu time spent up to now is     3453.1 secs

     total energy              =  -12837.86534887 Ry
     estimated scf accuracy    <       0.00002787 Ry

     total magnetization       =   110.37 Bohr mag/cell
     absolute magnetization    =   121.82 Bohr mag/cell

     iteration # 15     ecut=    45.00 Ry     beta= 0.20
     Davidson diagonalization with overlap
     ethr =  3.26E-09,  avg # of iterations =  4.5

     negative rho (up, down):  0.000E+00 2.487E-03

     total cpu time spent up to now is     3710.9 secs

     total energy              =  -12837.86551457 Ry
     estimated scf accuracy    <       0.00001874 Ry

     total magnetization       =   110.38 Bohr mag/cell
     absolute magnetization    =   121.81 Bohr mag/cell

     iteration # 16     ecut=    45.00 Ry     beta= 0.20
     Davidson diagonalization with overlap
     ethr =  2.19E-09,  avg # of iterations =  3.1

     negative rho (up, down):  0.000E+00 2.469E-03

     total cpu time spent up to now is     3954.2 secs

     total energy              =  -12837.86563133 Ry
     estimated scf accuracy    <       0.00001092 Ry

     total magnetization       =   110.36 Bohr mag/cell
     absolute magnetization    =   121.77 Bohr mag/cell

     iteration # 17     ecut=    45.00 Ry     beta= 0.20
     Davidson diagonalization with overlap
     ethr =  1.28E-09,  avg # of iterations =  4.2

     negative rho (up, down):  0.000E+00 2.449E-03

     total cpu time spent up to now is     4209.0 secs

     total energy              =  -12837.86570558 Ry
     estimated scf accuracy    <       0.00000574 Ry

     total magnetization       =   110.37 Bohr mag/cell
     absolute magnetization    =   121.78 Bohr mag/cell

     iteration # 18     ecut=    45.00 Ry     beta= 0.20
     Davidson diagonalization with overlap
     ethr =  6.72E-10,  avg # of iterations =  3.8

     negative rho (up, down):  0.000E+00 2.431E-03

     total cpu time spent up to now is     4468.3 secs

     total energy              =  -12837.86575217 Ry
     estimated scf accuracy    <       0.00000298 Ry

     total magnetization       =   110.38 Bohr mag/cell
     absolute magnetization    =   121.80 Bohr mag/cell

     iteration # 19     ecut=    45.00 Ry     beta= 0.20
     Davidson diagonalization with overlap
     ethr =  3.49E-10,  avg # of iterations =  3.7

     negative rho (up, down):  0.000E+00 2.423E-03

     total cpu time spent up to now is     4720.9 secs

     total energy              =  -12837.86578297 Ry
     estimated scf accuracy    <       0.00000213 Ry

     total magnetization       =   110.38 Bohr mag/cell
     absolute magnetization    =   121.80 Bohr mag/cell

     iteration # 20     ecut=    45.00 Ry     beta= 0.20
     Davidson diagonalization with overlap
     ethr =  2.50E-10,  avg # of iterations =  2.7

     negative rho (up, down):  0.000E+00 2.411E-03

     total cpu time spent up to now is     4953.4 secs

     total energy              =  -12837.86580021 Ry
     estimated scf accuracy    <       0.00000160 Ry

     total magnetization       =   110.38 Bohr mag/cell
     absolute magnetization    =   121.80 Bohr mag/cell

     iteration # 21     ecut=    45.00 Ry     beta= 0.20
     Davidson diagonalization with overlap
     ethr =  1.87E-10,  avg # of iterations =  3.7

     negative rho (up, down):  0.000E+00 2.402E-03

     total cpu time spent up to now is     5210.2 secs

     total energy              =  -12837.86581452 Ry
     estimated scf accuracy    <       0.00000101 Ry

     total magnetization       =   110.38 Bohr mag/cell
     absolute magnetization    =   121.81 Bohr mag/cell

     iteration # 22     ecut=    45.00 Ry     beta= 0.20
     Davidson diagonalization with overlap
     ethr =  1.18E-10,  avg # of iterations =  3.3

     negative rho (up, down):  0.000E+00 2.384E-03

     Magnetic moment per site  (integrated on atomic sphere of radius R)
     atom   1 (R=0.119)  charge= 11.2314  magn= -0.1217
     atom   2 (R=0.119)  charge= 11.1117  magn= -0.3798
     atom   3 (R=0.119)  charge= 14.5131  magn=  2.0612
     atom   4 (R=0.119)  charge= 14.4398  magn=  2.3897
     atom   5 (R=0.119)  charge= 14.5131  magn=  2.0612
     atom   6 (R=0.119)  charge= 11.1117  magn= -0.3798
     atom   7 (R=0.119)  charge= 14.5131  magn=  2.0612
     atom   8 (R=0.119)  charge= 14.4398  magn=  2.3897
     atom   9 (R=0.119)  charge= 14.4667  magn=  2.2709
     atom  10 (R=0.119)  charge= 14.4166  magn=  2.5161
     atom  11 (R=0.119)  charge= 14.4667  magn=  2.2709
     atom  12 (R=0.119)  charge= 14.4398  magn=  2.3897
     atom  13 (R=0.119)  charge= 14.5131  magn=  2.0612
     atom  14 (R=0.119)  charge= 11.1117  magn= -0.3798
     atom  15 (R=0.119)  charge= 14.4667  magn=  2.2709
     atom  16 (R=0.119)  charge= 14.4398  magn=  2.3897
     atom  17 (R=0.119)  charge= 14.4667  magn=  2.2709
     atom  18 (R=0.119)  charge= 11.1117  magn= -0.3798
     atom  19 (R=0.119)  charge= 14.5852  magn=  1.7285
     atom  20 (R=0.119)  charge= 14.4298  magn=  2.4654
     atom  21 (R=0.119)  charge= 14.5060  magn=  1.9913
     atom  22 (R=0.119)  charge= 14.4177  magn=  2.6042
     atom  23 (R=0.119)  charge= 14.5060  magn=  1.9913
     atom  24 (R=0.119)  charge= 14.4298  magn=  2.4654
     atom  25 (R=0.119)  charge= 14.5060  magn=  1.9913
     atom  26 (R=0.119)  charge= 14.4177  magn=  2.6042
     atom  27 (R=0.119)  charge= 14.4659  magn=  2.2729
     atom  28 (R=0.119)  charge= 14.4205  magn=  2.5924
     atom  29 (R=0.119)  charge= 14.4659  magn=  2.2729
     atom  30 (R=0.119)  charge= 14.4177  magn=  2.6042
     atom  31 (R=0.119)  charge= 14.5060  magn=  1.9913
     atom  32 (R=0.119)  charge= 14.4298  magn=  2.4654
     atom  33 (R=0.119)  charge= 14.4659  magn=  2.2729
     atom  34 (R=0.119)  charge= 14.4177  magn=  2.6042
     atom  35 (R=0.119)  charge= 14.4659  magn=  2.2729
     atom  36 (R=0.119)  charge= 14.4298  magn=  2.4654
     atom  37 (R=0.119)  charge= 14.4353  magn=  2.3846
     atom  38 (R=0.119)  charge= 14.4709  magn=  2.2732
     atom  39 (R=0.119)  charge= 14.4247  magn=  2.4361
     atom  40 (R=0.119)  charge= 14.4201  magn=  2.5839
     atom  41 (R=0.119)  charge= 14.4247  magn=  2.4361
     atom  42 (R=0.119)  charge= 14.4709  magn=  2.2732
     atom  43 (R=0.119)  charge= 14.4247  magn=  2.4361
     atom  44 (R=0.119)  charge= 14.4201  magn=  2.5839
     atom  45 (R=0.119)  charge= 14.4241  magn=  2.5683
     atom  46 (R=0.119)  charge= 14.4204  magn=  2.6633
     atom  47 (R=0.119)  charge= 14.4241  magn=  2.5683
     atom  48 (R=0.119)  charge= 14.4201  magn=  2.5839
     atom  49 (R=0.119)  charge= 14.4247  magn=  2.4361
     atom  50 (R=0.119)  charge= 14.4709  magn=  2.2732
     atom  51 (R=0.119)  charge= 14.4241  magn=  2.5683
     atom  52 (R=0.119)  charge= 14.4201  magn=  2.5839
     atom  53 (R=0.119)  charge= 14.4241  magn=  2.5683
     atom  54 (R=0.119)  charge= 14.4709  magn=  2.2732

     total cpu time spent up to now is     5455.7 secs

     End of self-consistent calculation

 ------ SPIN UP ------------


          k = 0.0000 0.0000 0.0000 ( 21879 PWs)   bands (ev):

   -69.6932 -69.6830 -69.6804 -69.6804 -69.6771 -69.6737 -69.6730 -69.6709
   -69.6707 -69.6707 -69.6685 -69.6685 -69.6656 -69.6582 -69.6571 -69.6567
   -69.6540 -69.6540 -69.6439 -69.6002 -69.5914 -69.5914 -69.5903 -69.5825
   -69.5785 -69.5785 -69.5742 -69.5721 -69.5603 -69.5564 -69.5564 -69.5515
   -69.5124 -69.5124 -69.5122 -69.5115 -69.5115 -69.5115 -69.5099 -69.5086
   -69.4985 -69.4976 -69.4976 -69.4954 -69.4574 -69.4516 -69.4507 -69.4507
   -69.4503 -42.1976 -42.0470 -42.0470 -42.0107 -41.8561 -35.7908 -35.7889
   -35.7889 -35.7877 -35.7834 -35.7819 -35.7816 -35.7816 -35.7803 -35.7798
   -35.7797 -35.7797 -35.7539 -35.7527 -35.7464 -35.7464 -35.7393 -35.7378
   -35.7378 -35.7357 -35.7314 -35.7314 -35.7306 -35.7289 -35.7274 -35.7231
   -35.7230 -35.7218 -35.7218 -35.7192 -35.7169 -35.7165 -35.7165 -35.7163
   -35.7150 -35.7150 -35.7076 -35.7063 -35.7063 -35.7037 -35.7033 -35.6983
   -35.6970 -35.6970 -35.6932 -35.6688 -35.6688 -35.6671 -35.6671 -35.6626
   -35.6626 -35.6598 -35.6588 -35.6569 -35.6569 -35.6541 -35.6509 -35.6509
   -35.6507 -35.6452 -35.6452 -35.6447 -35.6428 -35.6359 -35.6359 -35.6097
   -35.6097 -35.6037 -35.5925 -35.5548 -35.5541 -35.5472 -35.5472 -35.5447
   -35.5414 -35.5397 -35.5380 -35.5380 -35.5321 -35.5315 -35.5288 -35.5288
   -35.5273 -35.5243 -35.5177 -35.5177 -35.5163 -35.5163 -35.5150 -35.5127
   -35.5082 -35.5082 -35.5067 -35.5066 -35.4988 -35.4988 -35.4949 -35.4927
   -35.4927 -35.4919 -35.4919 -35.4917 -35.4881 -35.4835 -35.4792 -35.4792
   -35.4758 -35.4756 -35.4751 -35.4735 -35.4733 -35.4733 -35.4642 -35.4633
   -35.4617 -35.4609 -35.4608 -35.4608 -35.4560 -35.4560 -35.4546 -35.4523
   -35.4523 -35.4520 -35.4500 -35.4500 -35.4469 -35.4464 -35.4454 -35.4420
   -35.4413 -35.4413 -35.4348 -35.4297 -35.4198 -35.4198 -35.4154 -35.4154
   -35.4108 -35.4074 -35.4057 -35.4057 -35.3952 -35.3867 -35.3851 -35.3851
   -35.3769 -16.9256 -16.8712 -16.8712 -16.3730 -16.2687 -16.2687 -16.2579
   -16.1895 -16.0855 -16.0855 -16.0562 -16.0139 -15.6684 -15.6117 -15.6117
    10.3164  12.3238  12.3392  12.3936  12.4010  12.4010  12.5196  13.0801
    13.1179  13.2898  13.2898  13.3636  13.3673  13.3879  13.4060  13.4060
    13.5366  13.5628  13.5628  13.6179  13.7053  14.0826  14.0905  14.0905
    14.1005  14.1515  14.2037  14.2276  14.2333  14.2333  14.2802  14.2802
    14.3067  14.3979  14.4248  14.4248  14.4491  14.5196  14.5417  14.6865
    14.6989  14.7000  14.7000  14.7137  14.7262  14.7262  14.7441  14.8046
    14.8442  14.8793  14.8793  14.9416  14.9518  14.9648  14.9648  14.9805
    15.0024  15.0861  15.0934  15.0934  15.1823  15.1930  15.2082  15.2082
    15.2458  15.2557  15.2557  15.2571  15.2853  15.2996  15.3015  15.3015
    15.3166  15.3166  15.3170  15.3260  15.3290  15.4834  15.4918  15.4943
    15.4943  15.5003  15.5003  15.5154  15.5175  15.5203  15.5243  15.5243
    15.5324  15.5396  15.5429  15.5429  15.5429  15.5522  15.5522  15.5542
    15.5578  15.5733  15.5759  15.5759  15.5983  15.6032  15.6423  15.6431
    15.6431  15.8009  15.8183  15.8374  15.8374  15.8462  15.8517  15.8576
    15.8576  15.8793  15.8793  15.8863  15.8941  15.8999  15.9022  15.9022
    15.9091  15.9137  15.9191  15.9191  15.9278  15.9300  15.9335  15.9640
    15.9640  16.3468  16.3468  16.3544  16.3943  16.3943  16.3973  16.4178
    16.4178  16.4333  16.4336  16.4437  16.4437  16.4656  16.4946  16.4946
    16.5292  16.5556  16.5842  16.6140  16.6140  16.6374  16.6442  16.6632
    16.6740  16.6740  16.7409  16.7409  16.7550  16.7553  16.7871  16.8270
    16.8270  16.8552  16.8939  16.9401  16.9401  16.9497  16.9581  17.0112
    17.1545  17.1545  17.1554  17.1770  17.1770  17.1926  17.2253  17.2276
    17.2372  17.2457  17.2457  17.2605  17.3203  17.3203  17.3259  17.3745
    17.3745  17.3932  17.4072  17.4094  17.4094  17.4501  17.4728  17.4845
    17.4845  17.4892  17.4962  17.4998  17.4998  17.5067  17.5183  17.5339
    17.5421  17.5421  17.5951  17.5951  17.5996  17.5996  17.6025  17.6075
    17.6103  17.6130  17.6130  17.6138  17.6140  17.6184  17.6196  17.6196
    17.6265  17.6265  17.6273  17.6334  17.6411  17.6584  17.6584  17.6752
    17.6800  17.7168  17.7174  17.7307  17.7409  17.7409  17.7641  17.7641
    17.7700  17.7866  17.7935  17.7935  17.7947  17.8178  17.8601  17.8601
    17.8602  17.9069  17.9331  17.9331  17.9403  18.0054  18.0259  18.0545
    18.0740  18.0879  18.1075  18.1246  18.1246  18.2042  18.2299  18.2299
    18.3186  18.3186  18.3248  18.3838  18.3838  18.3870  18.3945  18.5210
    18.5531  18.6746  18.6962  18.6962  18.7572  18.7601  18.7679  19.1488
    19.1488  19.2066  19.2599  19.2599  19.4110  19.4110  19.7464  19.7464
    19.7534  19.9505  20.0850  20.2199  20.3444  20.3444  20.4279  20.6134
    20.6299  20.9607  21.1410  21.1797  21.2670  21.2670  21.3828  21.3994

          k = 0.0000 0.0000 0.3333 ( 21891 PWs)   bands (ev):

   -69.6915 -69.6862 -69.6803 -69.6796 -69.6764 -69.6744 -69.6740 -69.6713
   -69.6707 -69.6702 -69.6692 -69.6675 -69.6651 -69.6587 -69.6578 -69.6567
   -69.6540 -69.6530 -69.6438 -69.6009 -69.5921 -69.5895 -69.5892 -69.5848
   -69.5784 -69.5777 -69.5743 -69.5722 -69.5609 -69.5563 -69.5555 -69.5517
   -69.5125 -69.5124 -69.5122 -69.5115 -69.5115 -69.5114 -69.5099 -69.5084
   -69.4986 -69.4975 -69.4971 -69.4957 -69.4574 -69.4515 -69.4509 -69.4507
   -69.4501 -42.1978 -42.0470 -42.0469 -42.0107 -41.8559 -35.7972 -35.7940
   -35.7893 -35.7891 -35.7781 -35.7758 -35.7732 -35.7712 -35.7705 -35.7687
   -35.7650 -35.7635 -35.7606 -35.7567 -35.7552 -35.7495 -35.7491 -35.7455
   -35.7431 -35.7422 -35.7388 -35.7385 -35.7361 -35.7345 -35.7337 -35.7319
   -35.7311 -35.7300 -35.7299 -35.7274 -35.7233 -35.7218 -35.7144 -35.7127
   -35.7095 -35.7089 -35.7048 -35.7025 -35.7009 -35.6959 -35.6923 -35.6880
   -35.6844 -35.6835 -35.6787 -35.6720 -35.6703 -35.6688 -35.6629 -35.6613
   -35.6589 -35.6572 -35.6518 -35.6515 -35.6482 -35.6466 -35.6445 -35.6442
   -35.6432 -35.6411 -35.6393 -35.6348 -35.6316 -35.6295 -35.6254 -35.6122
   -35.6111 -35.6030 -35.5860 -35.5670 -35.5635 -35.5580 -35.5529 -35.5505
   -35.5501 -35.5487 -35.5453 -35.5403 -35.5395 -35.5388 -35.5330 -35.5330
   -35.5298 -35.5279 -35.5264 -35.5240 -35.5212 -35.5204 -35.5167 -35.5131
   -35.5103 -35.5089 -35.5085 -35.5065 -35.5049 -35.5039 -35.5017 -35.4998
   -35.4993 -35.4938 -35.4895 -35.4887 -35.4878 -35.4820 -35.4804 -35.4779
   -35.4767 -35.4765 -35.4754 -35.4724 -35.4719 -35.4674 -35.4665 -35.4636
   -35.4603 -35.4578 -35.4560 -35.4542 -35.4535 -35.4529 -35.4523 -35.4501
   -35.4493 -35.4475 -35.4454 -35.4440 -35.4439 -35.4436 -35.4418 -35.4403
   -35.4371 -35.4337 -35.4321 -35.4280 -35.4242 -35.4235 -35.4193 -35.4192
   -35.4162 -35.4147 -35.4138 -35.4103 -35.4035 -35.3948 -35.3922 -35.3900
   -35.3826 -16.9255 -16.8712 -16.8710 -16.3726 -16.2687 -16.2683 -16.2578
   -16.1895 -16.0861 -16.0855 -16.0565 -16.0142 -15.6683 -15.6119 -15.6117
    10.5669  11.3023  12.4905  12.5451  12.5706  12.6376  12.8821  12.9245
    12.9930  13.1245  13.3274  13.3966  13.5320  13.5608  13.5853  13.6168
    13.6352  13.6875  13.7391  13.7636  13.8523  13.9336  13.9610  13.9732
    14.0205  14.0899  14.1605  14.1744  14.1844  14.2524  14.2889  14.3396
    14.3773  14.3984  14.4020  14.4245  14.4547  14.4616  14.4629  14.4783
    14.4869  14.5046  14.5565  14.5934  14.6390  14.7080  14.7338  14.7500
    14.7608  14.7747  14.7947  14.7999  14.8173  14.8550  14.8645  14.8657
    14.9053  14.9141  14.9600  14.9967  15.2122  15.2204  15.2270  15.2334
    15.2369  15.2427  15.2559  15.2751  15.2761  15.2964  15.3100  15.3598
    15.3754  15.3928  15.4022  15.4079  15.4168  15.4203  15.4314  15.4354
    15.4427  15.4457  15.4536  15.4541  15.4600  15.4617  15.4668  15.4727
    15.4798  15.5616  15.5684  15.5698  15.5769  15.6750  15.6826  15.7083
    15.7099  15.7263  15.7285  15.7343  15.7368  15.7379  15.7423  15.7449
    15.7465  15.7504  15.7529  15.7583  15.7584  15.7633  15.7762  15.8004
    15.8154  15.8212  15.8471  15.8550  15.8564  15.8702  15.8793  15.9249
    15.9643  16.0108  16.0986  16.1071  16.1076  16.1161  16.1558  16.1765
    16.1934  16.1951  16.2025  16.2243  16.2316  16.2647  16.2996  16.3012
    16.3201  16.3287  16.3361  16.3871  16.3900  16.3920  16.4026  16.4132
    16.4250  16.4371  16.4469  16.4570  16.4886  16.5288  16.5673  16.6072
    16.6078  16.6341  16.8679  16.8828  16.9161  16.9186  16.9224  16.9245
    16.9372  16.9449  16.9480  16.9732  16.9925  17.0165  17.0220  17.0715
    17.0830  17.1481  17.1601  17.1639  17.1807  17.2123  17.2213  17.2475
    17.2513  17.2563  17.2606  17.2882  17.2911  17.3011  17.3276  17.3289
    17.3365  17.3562  17.3712  17.3837  17.3935  17.3981  17.4069  17.4147
    17.4204  17.4390  17.4529  17.4620  17.4804  17.5030  17.5132  17.5242
    17.5314  17.5437  17.5478  17.5666  17.5725  17.5811  17.5919  17.5961
    17.5982  17.6031  17.6069  17.6093  17.6139  17.6165  17.6235  17.6284
    17.6342  17.6556  17.6587  17.6606  17.6836  17.6868  17.7013  17.7015
    17.7126  17.7150  17.7174  17.7287  17.7387  17.7409  17.7745  17.7871
    17.7894  17.8204  17.8229  17.8449  17.8535  17.8646  17.9130  17.9389
    17.9605  17.9713  18.0390  18.1009  18.1085  18.1734  18.1792  18.2732
    18.2970  18.3179  18.3209  18.3458  18.3555  18.3601  18.3976  18.4088
    18.4210  18.4457  18.4630  18.4823  18.5218  18.5285  18.5371  18.5712
    18.5920  18.6095  18.6290  18.6786  18.7517  18.8252  18.8468  19.0205
    19.0555  19.1676  19.1819  19.1860  19.3616  19.4081  19.4955  19.5532
    19.6533  19.7495  19.8346  19.9231  20.0250  20.0568  20.1476  20.1757
    20.2413  20.3970  20.6095  20.7036  20.8196  20.8690  21.0247  21.1021

          k = 0.0000 0.3333 0.3333 ( 21886 PWs)   bands (ev):

   -69.6897 -69.6863 -69.6834 -69.6779 -69.6759 -69.6756 -69.6746 -69.6726
   -69.6701 -69.6698 -69.6680 -69.6680 -69.6647 -69.6587 -69.6585 -69.6568
   -69.6536 -69.6523 -69.6436 -69.6016 -69.5907 -69.5905 -69.5880 -69.5849
   -69.5792 -69.5783 -69.5742 -69.5718 -69.5617 -69.5555 -69.5555 -69.5519
   -69.5125 -69.5125 -69.5122 -69.5115 -69.5114 -69.5114 -69.5099 -69.5083
   -69.4988 -69.4971 -69.4971 -69.4960 -69.4574 -69.4514 -69.4510 -69.4509
   -69.4500 -42.1978 -42.0470 -42.0469 -42.0106 -41.8559 -35.8019 -35.7990
   -35.7899 -35.7880 -35.7856 -35.7834 -35.7740 -35.7676 -35.7652 -35.7650
   -35.7619 -35.7608 -35.7599 -35.7595 -35.7550 -35.7545 -35.7524 -35.7506
   -35.7481 -35.7457 -35.7438 -35.7418 -35.7409 -35.7356 -35.7353 -35.7326
   -35.7293 -35.7283 -35.7248 -35.7222 -35.7182 -35.7179 -35.7146 -35.7114
   -35.7095 -35.7093 -35.7032 -35.7007 -35.6982 -35.6938 -35.6923 -35.6877
   -35.6829 -35.6819 -35.6779 -35.6735 -35.6724 -35.6672 -35.6661 -35.6651
   -35.6616 -35.6606 -35.6570 -35.6561 -35.6556 -35.6506 -35.6459 -35.6425
   -35.6394 -35.6350 -35.6332 -35.6291 -35.6256 -35.6246 -35.6211 -35.6191
   -35.6161 -35.6001 -35.5982 -35.5762 -35.5595 -35.5552 -35.5509 -35.5492
   -35.5488 -35.5459 -35.5436 -35.5429 -35.5419 -35.5378 -35.5372 -35.5326
   -35.5293 -35.5269 -35.5244 -35.5227 -35.5203 -35.5173 -35.5158 -35.5139
   -35.5119 -35.5087 -35.5075 -35.5073 -35.5051 -35.5036 -35.4989 -35.4967
   -35.4926 -35.4919 -35.4917 -35.4890 -35.4868 -35.4844 -35.4807 -35.4800
   -35.4782 -35.4764 -35.4735 -35.4726 -35.4717 -35.4690 -35.4676 -35.4666
   -35.4635 -35.4615 -35.4605 -35.4592 -35.4564 -35.4527 -35.4509 -35.4509
   -35.4481 -35.4467 -35.4466 -35.4445 -35.4416 -35.4414 -35.4388 -35.4351
   -35.4319 -35.4296 -35.4293 -35.4271 -35.4225 -35.4214 -35.4197 -35.4169
   -35.4163 -35.4118 -35.4098 -35.4087 -35.4041 -35.3964 -35.3892 -35.3868
   -35.3834 -16.9253 -16.8711 -16.8710 -16.3723 -16.2683 -16.2683 -16.2577
   -16.1895 -16.0861 -16.0860 -16.0568 -16.0145 -15.6682 -15.6118 -15.6118
    10.8179  11.5133  11.5378  12.1466  12.7179  12.7809  13.0782  13.1535
    13.2047  13.2996  13.3984  13.5127  13.6007  13.6262  13.6516  13.7109
    13.7391  13.7536  13.7732  13.8147  13.8211  13.8626  13.9304  14.0197
    14.1154  14.1157  14.1425  14.1429  14.1845  14.2371  14.2394  14.2726
    14.2846  14.2971  14.3050  14.3576  14.3983  14.3994  14.4425  14.4949
    14.5142  14.5152  14.5651  14.5887  14.5991  14.6081  14.6184  14.6290
    14.6404  14.6767  14.7135  14.7381  14.7748  14.8000  14.8065  14.8864
    14.9662  15.0177  15.0532  15.0629  15.0683  15.0928  15.1129  15.1832
    15.1943  15.1970  15.2182  15.2237  15.2366  15.2399  15.2628  15.2740
    15.2963  15.3010  15.3050  15.3141  15.3203  15.3382  15.3445  15.3491
    15.3550  15.3660  15.3811  15.3922  15.3968  15.4033  15.4851  15.4898
    15.4916  15.4957  15.5088  15.5660  15.5982  15.6528  15.6753  15.6812
    15.6855  15.6918  15.7200  15.7283  15.7379  15.7545  15.7857  15.7880
    15.8446  15.8520  15.8749  15.9161  15.9215  15.9596  15.9723  15.9854
    15.9865  15.9898  16.0003  16.0119  16.0123  16.0282  16.0532  16.0561
    16.0567  16.0695  16.0890  16.0976  16.1011  16.1056  16.1081  16.1156
    16.1178  16.1249  16.1303  16.1313  16.1417  16.1623  16.1867  16.2014
    16.2102  16.2477  16.2512  16.2634  16.2671  16.3049  16.3060  16.3488
    16.3915  16.4029  16.4576  16.4879  16.5393  16.5630  16.5712  16.6352
    16.6703  16.6763  16.7111  16.7165  16.7766  16.8588  16.8736  16.9228
    16.9370  16.9812  16.9922  17.0423  17.0494  17.0609  17.1752  17.1904
    17.1922  17.2254  17.2651  17.2719  17.2834  17.2948  17.3066  17.3132
    17.3197  17.3320  17.3450  17.3667  17.3780  17.4018  17.4020  17.4068
    17.4163  17.4292  17.4354  17.4386  17.4517  17.4521  17.4563  17.4636
    17.4760  17.4776  17.4914  17.5036  17.5151  17.5164  17.5186  17.5322
    17.5348  17.5415  17.5473  17.5529  17.5600  17.5828  17.5863  17.5998
    17.6028  17.6287  17.6395  17.6400  17.6524  17.6529  17.6595  17.6615
    17.6683  17.6784  17.6903  17.6981  17.7066  17.7285  17.7289  17.7367
    17.7454  17.7651  17.7734  17.7945  17.8045  17.8189  17.8222  17.8387
    17.8444  17.8536  17.8665  17.8892  17.9201  17.9370  17.9603  17.9612
    17.9874  18.0707  18.0866  18.1197  18.1283  18.1424  18.1515  18.1654
    18.1897  18.2137  18.2207  18.2308  18.2459  18.2887  18.2958  18.3167
    18.3171  18.3318  18.3850  18.4448  18.4513  18.4723  18.4724  18.5521
    18.5810  18.6054  18.7623  18.9125  18.9192  18.9336  18.9739  19.0283
    19.0434  19.1115  19.1549  19.2217  19.2839  19.3015  19.4511  19.4841
    19.6487  19.6728  19.7415  19.8011  19.9774  20.0355  20.0973  20.1235
    20.1815  20.4931  20.4950  20.6932  20.7228  20.7975  20.8116  20.9784

          k = 0.3333 0.3333 0.3333 ( 21842 PWs)   bands (ev):

   -69.6891 -69.6860 -69.6830 -69.6778 -69.6774 -69.6757 -69.6752 -69.6734
   -69.6698 -69.6691 -69.6680 -69.6680 -69.6647 -69.6583 -69.6582 -69.6569
   -69.6536 -69.6523 -69.6434 -69.6016 -69.5906 -69.5905 -69.5880 -69.5849
   -69.5791 -69.5783 -69.5742 -69.5718 -69.5616 -69.5555 -69.5555 -69.5519
   -69.5125 -69.5125 -69.5122 -69.5114 -69.5114 -69.5113 -69.5099 -69.5084
   -69.4988 -69.4971 -69.4971 -69.4960 -69.4574 -69.4513 -69.4509 -69.4509
   -69.4500 -42.1978 -42.0469 -42.0469 -42.0106 -41.8559 -35.8007 -35.7978
   -35.7967 -35.7921 -35.7918 -35.7893 -35.7759 -35.7707 -35.7695 -35.7680
   -35.7607 -35.7600 -35.7560 -35.7559 -35.7514 -35.7504 -35.7493 -35.7470
   -35.7466 -35.7420 -35.7391 -35.7375 -35.7364 -35.7352 -35.7323 -35.7296
   -35.7282 -35.7264 -35.7241 -35.7225 -35.7205 -35.7204 -35.7162 -35.7107
   -35.7093 -35.7069 -35.7048 -35.6987 -35.6963 -35.6920 -35.6904 -35.6901
   -35.6883 -35.6841 -35.6814 -35.6801 -35.6747 -35.6715 -35.6697 -35.6692
   -35.6627 -35.6539 -35.6532 -35.6518 -35.6466 -35.6461 -35.6437 -35.6424
   -35.6420 -35.6385 -35.6366 -35.6326 -35.6229 -35.6224 -35.6199 -35.6123
   -35.6089 -35.5962 -35.5939 -35.5756 -35.5571 -35.5553 -35.5509 -35.5484
   -35.5467 -35.5449 -35.5430 -35.5412 -35.5399 -35.5379 -35.5362 -35.5324
   -35.5305 -35.5259 -35.5245 -35.5234 -35.5191 -35.5180 -35.5162 -35.5154
   -35.5130 -35.5111 -35.5098 -35.5089 -35.5073 -35.5069 -35.5002 -35.4978
   -35.4948 -35.4942 -35.4913 -35.4890 -35.4845 -35.4811 -35.4797 -35.4772
   -35.4769 -35.4753 -35.4735 -35.4734 -35.4708 -35.4705 -35.4665 -35.4638
   -35.4613 -35.4596 -35.4577 -35.4536 -35.4536 -35.4513 -35.4498 -35.4493
   -35.4489 -35.4460 -35.4440 -35.4409 -35.4398 -35.4395 -35.4364 -35.4343
   -35.4318 -35.4282 -35.4280 -35.4260 -35.4232 -35.4226 -35.4202 -35.4180
   -35.4164 -35.4124 -35.4101 -35.4095 -35.4072 -35.3953 -35.3882 -35.3881
   -35.3839 -16.9253 -16.8710 -16.8710 -16.3723 -16.2683 -16.2683 -16.2577
   -16.1895 -16.0860 -16.0860 -16.0568 -16.0145 -15.6682 -15.6118 -15.6118
    11.0623  11.7314  11.7341  11.7919  12.3302  12.3436  12.4607  12.9939
    13.4320  13.4456  13.6614  13.7221  13.7334  13.7634  13.7656  13.8383
    13.8402  13.8750  13.9004  13.9477  13.9617  13.9947  14.0311  14.0418
    14.1205  14.1804  14.2125  14.2562  14.2758  14.2807  14.3108  14.3205
    14.3389  14.3444  14.3718  14.3858  14.4105  14.4223  14.4311  14.4424
    14.4482  14.4617  14.4733  14.4756  14.4795  14.5123  14.5290  14.5379
    14.5596  14.5668  14.5962  14.6094  14.6867  14.6874  14.7659  14.7929
    14.8066  14.8110  14.9333  14.9368  15.0579  15.1064  15.1558  15.1740
    15.1770  15.1982  15.2020  15.2267  15.2373  15.2433  15.2617  15.2628
    15.2712  15.2796  15.2813  15.2887  15.2900  15.2952  15.3022  15.3035
    15.3162  15.3961  15.4078  15.4129  15.4515  15.4543  15.4670  15.4772
    15.4878  15.5152  15.5688  15.5738  15.5861  15.5919  15.5999  15.6118
    15.6197  15.6267  15.6560  15.6823  15.6840  15.6921  15.6937  15.6979
    15.8045  15.8130  15.8151  15.8782  15.8932  15.8956  15.9152  15.9600
    15.9624  15.9836  16.0044  16.0064  16.0238  16.0345  16.0442  16.0452
    16.0479  16.0532  16.0558  16.0622  16.0641  16.0730  16.0745  16.0807
    16.0821  16.0885  16.0931  16.1072  16.1287  16.1381  16.1434  16.1711
    16.1792  16.2261  16.2315  16.2380  16.3907  16.3923  16.4108  16.5083
    16.5153  16.5229  16.5973  16.6469  16.6611  16.6822  16.6971  16.7647
    16.8469  16.9087  16.9545  16.9659  17.0576  17.0612  17.0691  17.0768
    17.0924  17.1054  17.1160  17.1330  17.1615  17.1663  17.1819  17.1989
    17.2271  17.2329  17.2371  17.2495  17.2598  17.2680  17.2693  17.2757
    17.2768  17.2854  17.2982  17.3046  17.3149  17.3255  17.3321  17.3862
    17.3865  17.4039  17.4048  17.4180  17.4209  17.4282  17.4479  17.4511
    17.4640  17.4728  17.4917  17.5056  17.5071  17.5279  17.5301  17.5420
    17.5434  17.5529  17.5641  17.5646  17.5722  17.5778  17.5857  17.6224
    17.6391  17.6417  17.6574  17.6601  17.6616  17.6667  17.6668  17.6724
    17.6831  17.6972  17.7129  17.7207  17.7300  17.7393  17.7446  17.7596
    17.7619  17.7743  17.7762  17.7985  17.8047  17.8415  17.8487  17.8724
    17.8771  17.8821  17.8828  17.9036  17.9203  17.9311  17.9469  17.9730
    17.9981  18.0141  18.0413  18.0516  18.0750  18.0946  18.0997  18.1148
    18.1270  18.1637  18.1922  18.2109  18.2369  18.2847  18.3049  18.3163
    18.3324  18.3497  18.3586  18.4070  18.4164  18.5159  18.5222  18.5915
    18.6076  18.6704  18.7256  18.8099  18.8237  18.8646  18.9758  19.0183
    19.1153  19.1433  19.2425  19.2814  19.3826  19.3967  19.4804  19.6320
    19.7413  19.8702  19.8977  19.9621  20.0226  20.0298  20.1795  20.1941
    20.2367  20.3378  20.5054  20.5523  20.6361  20.7808  20.8491  20.9242

          k = 0.3333 0.0000 0.0000 ( 21891 PWs)   bands (ev):

   -69.6926 -69.6829 -69.6803 -69.6803 -69.6794 -69.6740 -69.6730 -69.6709
   -69.6709 -69.6699 -69.6685 -69.6685 -69.6656 -69.6579 -69.6571 -69.6569
   -69.6540 -69.6540 -69.6437 -69.6003 -69.5914 -69.5914 -69.5903 -69.5825
   -69.5785 -69.5785 -69.5741 -69.5720 -69.5603 -69.5564 -69.5564 -69.5515
   -69.5124 -69.5124 -69.5121 -69.5115 -69.5115 -69.5113 -69.5099 -69.5087
   -69.4986 -69.4975 -69.4975 -69.4954 -69.4574 -69.4516 -69.4507 -69.4507
   -69.4502 -42.1977 -42.0470 -42.0470 -42.0107 -41.8559 -35.7965 -35.7900
   -35.7900 -35.7891 -35.7770 -35.7759 -35.7759 -35.7737 -35.7714 -35.7714
   -35.7712 -35.7658 -35.7529 -35.7519 -35.7509 -35.7509 -35.7464 -35.7454
   -35.7436 -35.7436 -35.7377 -35.7377 -35.7377 -35.7355 -35.7346 -35.7318
   -35.7318 -35.7311 -35.7271 -35.7263 -35.7212 -35.7186 -35.7186 -35.7151
   -35.7118 -35.7118 -35.7041 -35.7025 -35.6962 -35.6956 -35.6956 -35.6852
   -35.6846 -35.6846 -35.6753 -35.6698 -35.6698 -35.6658 -35.6632 -35.6613
   -35.6613 -35.6599 -35.6542 -35.6529 -35.6529 -35.6508 -35.6508 -35.6431
   -35.6401 -35.6397 -35.6394 -35.6342 -35.6342 -35.6310 -35.6310 -35.6049
   -35.6049 -35.6025 -35.5913 -35.5637 -35.5540 -35.5504 -35.5504 -35.5497
   -35.5441 -35.5441 -35.5411 -35.5391 -35.5391 -35.5354 -35.5348 -35.5348
   -35.5342 -35.5291 -35.5254 -35.5226 -35.5226 -35.5207 -35.5185 -35.5185
   -35.5185 -35.5169 -35.5169 -35.5158 -35.5062 -35.5036 -35.5036 -35.5005
   -35.5005 -35.4915 -35.4897 -35.4845 -35.4845 -35.4836 -35.4831 -35.4811
   -35.4811 -35.4743 -35.4715 -35.4710 -35.4710 -35.4685 -35.4593 -35.4589
   -35.4576 -35.4557 -35.4557 -35.4533 -35.4533 -35.4505 -35.4499 -35.4494
   -35.4494 -35.4480 -35.4447 -35.4426 -35.4426 -35.4421 -35.4418 -35.4404
   -35.4404 -35.4371 -35.4342 -35.4297 -35.4256 -35.4256 -35.4206 -35.4181
   -35.4181 -35.4147 -35.4115 -35.4115 -35.4037 -35.3959 -35.3908 -35.3908
   -35.3812 -16.9256 -16.8712 -16.8712 -16.3730 -16.2686 -16.2686 -16.2578
   -16.1895 -16.0855 -16.0855 -16.0562 -16.0139 -15.6685 -15.6118 -15.6118
    10.5672  11.3044  12.4890  12.5684  12.5684  12.5865  12.8549  13.0088
    13.0088  13.0343  13.3672  13.4319  13.4834  13.5515  13.5515  13.6113
    13.6708  13.6767  13.7484  13.7484  13.8278  13.9347  13.9347  13.9985
    14.0441  14.1327  14.2065  14.2106  14.2264  14.2307  14.2307  14.3559
    14.3569  14.3569  14.3624  14.4368  14.4530  14.4530  14.4540  14.4867
    14.5104  14.5112  14.5112  14.5911  14.6892  14.6892  14.7118  14.7475
    14.7686  14.7686  14.8001  14.8207  14.8302  14.8302  14.8451  14.8562
    14.9308  14.9308  14.9630  15.0020  15.1909  15.1989  15.1989  15.2272
    15.2311  15.2311  15.2344  15.2486  15.3056  15.3457  15.3457  15.3773
    15.3773  15.3948  15.3948  15.4044  15.4080  15.4145  15.4368  15.4368
    15.4428  15.4428  15.4511  15.4520  15.4557  15.4690  15.4690  15.4756
    15.4819  15.5591  15.5685  15.5685  15.5704  15.6697  15.6697  15.6874
    15.6980  15.7332  15.7332  15.7356  15.7404  15.7438  15.7438  15.7463
    15.7540  15.7549  15.7554  15.7554  15.7559  15.7737  15.7737  15.7785
    15.8112  15.8291  15.8683  15.8696  15.8696  15.8905  15.9270  15.9270
    15.9644  15.9772  16.1008  16.1111  16.1111  16.1142  16.1687  16.1743
    16.1893  16.1893  16.2167  16.2195  16.2195  16.2526  16.2882  16.2882
    16.3503  16.3537  16.3537  16.3565  16.3866  16.3866  16.3997  16.4057
    16.4396  16.4396  16.4482  16.4691  16.5134  16.5134  16.5391  16.6199
    16.6199  16.6231  16.8744  16.8762  16.8975  16.8975  16.9169  16.9311
    16.9311  16.9543  16.9543  16.9740  16.9865  17.0313  17.0313  17.0497
    17.0923  17.1439  17.1653  17.1653  17.1799  17.2330  17.2330  17.2457
    17.2543  17.2594  17.2597  17.2924  17.2924  17.3137  17.3137  17.3148
    17.3161  17.3192  17.3688  17.3718  17.3789  17.3789  17.4052  17.4258
    17.4258  17.4575  17.4699  17.4720  17.4720  17.4829  17.4925  17.5268
    17.5302  17.5302  17.5685  17.5769  17.5894  17.5944  17.5944  17.6018
    17.6018  17.6072  17.6139  17.6214  17.6214  17.6260  17.6308  17.6308
    17.6512  17.6521  17.6558  17.6666  17.6865  17.6865  17.6945  17.6958
    17.6968  17.6968  17.7144  17.7226  17.7408  17.7682  17.7753  17.7889
    17.7889  17.8099  17.8099  17.8280  17.8466  17.8466  17.9496  17.9537
    17.9944  18.0250  18.0253  18.0253  18.1185  18.1185  18.1185  18.2488
    18.2898  18.2898  18.3264  18.3430  18.3690  18.3690  18.3862  18.4005
    18.4525  18.4544  18.5092  18.5092  18.5262  18.5325  18.5605  18.5605
    18.6091  18.6153  18.6153  18.6765  18.7340  18.8082  18.9771  19.0160
    19.0165  19.0165  19.2368  19.2368  19.4358  19.4358  19.4726  19.5678
    19.8224  19.8224  19.9508  20.0209  20.0978  20.1214  20.1335  20.1335
    20.2732  20.4885  20.6656  20.6822  20.6822  20.7964  20.9075  20.9075

          k = 0.3333-0.3333 0.0000 ( 21886 PWs)   bands (ev):

   -69.6907 -69.6859 -69.6801 -69.6795 -69.6784 -69.6751 -69.6739 -69.6714
   -69.6709 -69.6693 -69.6692 -69.6675 -69.6651 -69.6584 -69.6575 -69.6569
   -69.6539 -69.6529 -69.6435 -69.6009 -69.5921 -69.5895 -69.5892 -69.5848
   -69.5784 -69.5777 -69.5743 -69.5722 -69.5609 -69.5564 -69.5555 -69.5517
   -69.5126 -69.5124 -69.5122 -69.5114 -69.5114 -69.5113 -69.5099 -69.5086
   -69.4986 -69.4975 -69.4971 -69.4957 -69.4574 -69.4515 -69.4509 -69.4507
   -69.4501 -42.1978 -42.0470 -42.0469 -42.0106 -41.8559 -35.8028 -35.8005
   -35.7881 -35.7851 -35.7831 -35.7797 -35.7713 -35.7713 -35.7695 -35.7686
   -35.7641 -35.7619 -35.7598 -35.7589 -35.7535 -35.7528 -35.7517 -35.7492
   -35.7492 -35.7462 -35.7442 -35.7427 -35.7406 -35.7373 -35.7332 -35.7322
   -35.7299 -35.7274 -35.7263 -35.7262 -35.7233 -35.7169 -35.7132 -35.7132
   -35.7079 -35.7056 -35.7008 -35.6971 -35.6947 -35.6945 -35.6886 -35.6877
   -35.6839 -35.6811 -35.6774 -35.6753 -35.6703 -35.6698 -35.6678 -35.6652
   -35.6632 -35.6604 -35.6594 -35.6570 -35.6550 -35.6462 -35.6451 -35.6419
   -35.6411 -35.6392 -35.6352 -35.6331 -35.6315 -35.6290 -35.6251 -35.6138
   -35.6109 -35.6029 -35.5847 -35.5628 -35.5600 -35.5560 -35.5532 -35.5527
   -35.5516 -35.5469 -35.5461 -35.5436 -35.5373 -35.5356 -35.5355 -35.5329
   -35.5296 -35.5267 -35.5242 -35.5240 -35.5202 -35.5184 -35.5153 -35.5133
   -35.5116 -35.5116 -35.5088 -35.5081 -35.5063 -35.5040 -35.5024 -35.5016
   -35.5000 -35.4918 -35.4906 -35.4862 -35.4858 -35.4822 -35.4810 -35.4799
   -35.4788 -35.4762 -35.4750 -35.4736 -35.4693 -35.4674 -35.4660 -35.4646
   -35.4611 -35.4602 -35.4584 -35.4557 -35.4555 -35.4534 -35.4517 -35.4502
   -35.4491 -35.4475 -35.4462 -35.4456 -35.4418 -35.4416 -35.4375 -35.4365
   -35.4330 -35.4299 -35.4274 -35.4259 -35.4243 -35.4238 -35.4196 -35.4168
   -35.4161 -35.4133 -35.4129 -35.4081 -35.4040 -35.3932 -35.3923 -35.3867
   -35.3816 -16.9255 -16.8712 -16.8710 -16.3726 -16.2687 -16.2683 -16.2578
   -16.1895 -16.0861 -16.0855 -16.0565 -16.0142 -15.6683 -15.6119 -15.6117
    10.8180  11.5116  11.5417  12.1525  12.7235  12.7538  13.0780  13.1588
    13.2030  13.2792  13.3648  13.4976  13.5757  13.6184  13.6779  13.6976
    13.7310  13.7346  13.8013  13.8164  13.8453  13.8739  13.9499  13.9889
    14.0860  14.1096  14.1202  14.1664  14.1882  14.2375  14.2661  14.2957
    14.3289  14.3432  14.3723  14.3870  14.4002  14.4158  14.4308  14.4576
    14.4791  14.4941  14.5567  14.5694  14.5964  14.6010  14.6090  14.6314
    14.6401  14.6508  14.6952  14.7490  14.7569  14.8022  14.8055  14.8722
    14.9756  14.9975  15.0518  15.0671  15.0775  15.0912  15.1597  15.1612
    15.1844  15.1860  15.2085  15.2163  15.2313  15.2598  15.2759  15.2815
    15.2917  15.2967  15.3093  15.3199  15.3242  15.3355  15.3400  15.3517
    15.3541  15.3637  15.3780  15.3948  15.4030  15.4091  15.4853  15.4854
    15.4943  15.4952  15.5366  15.5409  15.6228  15.6310  15.6847  15.6853
    15.6882  15.6914  15.7098  15.7280  15.7421  15.7593  15.7814  15.7902
    15.8456  15.8540  15.8765  15.9324  15.9421  15.9527  15.9582  15.9778
    15.9844  15.9927  16.0025  16.0054  16.0175  16.0197  16.0368  16.0537
    16.0556  16.0633  16.0850  16.0917  16.0992  16.1040  16.1066  16.1131
    16.1180  16.1287  16.1490  16.1548  16.1654  16.1870  16.1958  16.1985
    16.2162  16.2218  16.2311  16.2453  16.2560  16.2741  16.2912  16.3582
    16.4214  16.4246  16.4624  16.4686  16.5292  16.5630  16.6059  16.6286
    16.6587  16.6892  16.7074  16.7575  16.7621  16.8455  16.8549  16.9424
    16.9427  16.9865  16.9904  17.0267  17.0416  17.0668  17.1692  17.1785
    17.1897  17.2250  17.2553  17.2665  17.2897  17.3071  17.3088  17.3177
    17.3187  17.3263  17.3541  17.3755  17.3801  17.4022  17.4022  17.4118
    17.4194  17.4240  17.4361  17.4423  17.4478  17.4489  17.4671  17.4727
    17.4822  17.4903  17.4931  17.4992  17.5061  17.5166  17.5256  17.5339
    17.5441  17.5484  17.5556  17.5621  17.5749  17.5771  17.5833  17.5971
    17.5992  17.6151  17.6223  17.6332  17.6548  17.6584  17.6589  17.6738
    17.6796  17.6847  17.6909  17.6957  17.7088  17.7193  17.7242  17.7387
    17.7513  17.7598  17.7719  17.7846  17.8061  17.8272  17.8319  17.8374
    17.8462  17.8618  17.8686  17.8840  17.9155  17.9337  17.9549  17.9785
    17.9794  18.0415  18.0569  18.0830  18.1017  18.1245  18.1436  18.1764
    18.1865  18.1954  18.2379  18.2544  18.2677  18.2825  18.3006  18.3253
    18.3635  18.3685  18.3938  18.4236  18.4326  18.4603  18.5220  18.5287
    18.6241  18.6873  18.6901  18.7183  18.7738  18.9144  18.9190  18.9733
    19.1031  19.1262  19.1894  19.2821  19.2960  19.4837  19.5917  19.6531
    19.6897  19.7325  19.7952  19.9235  19.9760  20.0172  20.0339  20.2061
    20.2185  20.3909  20.4003  20.5938  20.7036  20.7589  20.9209  20.9544

 ------ SPIN DOWN ----------


          k = 0.0000 0.0000 0.0000 ( 21879 PWs)   bands (ev):

   -67.2843 -66.9475 -66.9467 -66.9431 -66.9431 -66.9132 -66.9116 -66.9084
   -66.9084 -66.7274 -66.7228 -66.7228 -66.7204 -66.6932 -66.6848 -66.6848
   -66.6758 -66.6585 -66.6546 -66.6546 -66.6543 -66.6512 -66.6475 -66.6475
   -66.6465 -66.6038 -66.5765 -66.5765 -66.5728 -66.5699 -66.5071 -66.5027
   -66.4967 -66.4967 -66.4943 -66.4191 -66.4166 -66.4166 -66.4118 -66.4107
   -66.4092 -66.4092 -66.4085 -66.3903 -66.3607 -66.3583 -66.3583 -66.3552
   -66.3164 -42.4435 -42.3411 -42.3411 -42.3054 -41.9974 -33.4012 -33.3879
   -33.3879 -33.1742 -33.1714 -33.1488 -33.1488 -33.0943 -33.0941 -33.0718
   -33.0718 -33.0588 -33.0581 -33.0507 -33.0485 -33.0465 -33.0465 -33.0420
   -33.0420 -33.0341 -33.0310 -33.0310 -33.0174 -33.0146 -33.0135 -32.9884
   -32.9884 -32.9264 -32.9157 -32.9157 -32.9070 -32.9032 -32.8978 -32.8978
   -32.8952 -32.8921 -32.8843 -32.8843 -32.8744 -32.8680 -32.8660 -32.8660
   -32.8434 -32.8426 -32.8417 -32.8417 -32.8362 -32.8314 -32.8283 -32.8189
   -32.8189 -32.8044 -32.8044 -32.7993 -32.7904 -32.7836 -32.7819 -32.7819
   -32.7700 -32.7689 -32.7689 -32.7491 -32.7490 -32.7480 -32.7298 -32.7285
   -32.7285 -32.7277 -32.7179 -32.7120 -32.7120 -32.6962 -32.6962 -32.6923
   -32.6787 -32.6731 -32.6704 -32.6646 -32.6646 -32.6588 -32.6521 -32.6521
   -32.6485 -32.6454 -32.6341 -32.6341 -32.6311 -32.6311 -32.6307 -32.6304
   -32.6280 -32.6040 -32.6035 -32.5997 -32.5990 -32.5930 -32.5930 -32.5845
   -32.5838 -32.5838 -32.5799 -32.5778 -32.5778 -32.5730 -32.5605 -32.5605
   -32.5559 -32.5559 -32.5511 -32.5416 -32.5295 -32.5295 -32.5233 -32.5126
   -32.5126 -32.5102 -32.4956 -32.4929 -32.4908 -32.4821 -32.4821 -32.4682
   -32.4682 -32.4657 -32.4657 -32.4624 -32.4539 -32.4501 -32.4471 -32.4471
   -32.4460 -32.4431 -32.4341 -32.4341 -32.4334 -32.4283 -32.4101 -32.3810
   -32.3779 -32.3779 -32.3690 -32.3553 -32.3553 -32.3511 -32.3482 -32.3438
   -32.3438 -17.1372 -17.0766 -17.0766 -16.7015 -16.6165 -16.6131 -16.6131
   -16.5353 -16.4169 -16.4169 -16.3581 -16.3454 -15.8653 -15.7971 -15.7971
    10.4293  12.4950  12.5202  12.5656  12.5656  12.5776  12.6847  13.3721
    13.3985  13.6673  13.6673  13.8023  13.8146  13.8483  13.9606  13.9606
    14.1161  14.1161  14.1273  14.3402  14.3764  15.0212  15.0212  15.0788
    15.0868  15.0868  15.1699  15.2324  15.3038  15.3050  15.3050  15.4551
    15.5422  15.5422  15.6124  15.6124  15.6580  15.6824  15.7336  15.7336
    15.7353  15.8675  15.8689  15.8689  15.8805  15.8885  15.9177  15.9401
    15.9592  16.0149  16.2185  16.2264  16.2264  16.3195  16.5371  16.5371
    16.5614  16.5949  16.6079  16.6273  16.6353  16.6473  16.7355  16.7397
    16.7397  16.7939  16.8128  16.8675  16.8675  16.9217  16.9516  16.9656
    16.9656  17.0338  17.0438  17.0443  17.0443  17.0636  17.0636  17.0716
    17.1110  17.1521  17.1521  17.1560  17.1625  17.1680  17.1811  17.1811
    17.1913  17.1919  17.2105  17.2332  17.2332  17.3162  17.3162  17.3267
    17.3358  17.3939  17.3939  17.4032  17.4158  17.4158  17.4402  17.4589
    17.4589  17.4690  17.4837  17.5090  17.5165  17.5178  17.5434  17.5454
    17.5628  17.5628  17.5895  17.5951  17.5951  17.8055  17.8254  17.8254
    17.8447  17.8572  17.8871  17.9020  17.9020  17.9121  17.9121  17.9134
    17.9430  17.9582  17.9733  17.9781  17.9781  18.0474  18.0474  18.0479
    18.0546  18.0894  18.1996  18.1996  18.2473  18.2473  18.2756  18.2942
    18.4338  18.4338  18.4690  18.4961  18.4964  18.4964  18.5052  18.5052
    18.5069  18.6001  18.6596  18.6596  18.9836  19.0539  19.0620  19.0801
    19.0801  19.0876  19.0876  19.1007  19.1102  19.1301  19.1717  19.1784
    19.4441  19.4441  19.5057  19.5057  19.5191  19.5272  19.5305  19.5305
    19.5402  19.5615  19.5997  19.5997  19.5998  19.6014  19.6154  19.6154
    19.6449  19.6477  19.6477  19.6510  19.6593  19.6597  19.6852  19.6852
    20.1296  20.1442  20.1442  20.1661  20.1661  20.1748  20.1757  20.1767
    20.1979  20.2239  20.2239  20.2260  20.3118  20.3527  20.3565  20.3565
    20.3789  20.3851  20.3851  20.4073  20.4129  20.4146  20.4198  20.4325
    20.4325  20.4414  20.4709  20.4709  20.4764  20.4974  20.4974  20.4991
    20.5005  20.5074  20.5247  20.5337  20.5437  20.5441  20.5441  20.5530
    20.5590  20.5623  20.5803  20.5854  20.5854  20.6112  20.6112  20.6158
    20.6290  20.6322  20.6322  20.6427  20.6511  20.6511  20.6534  20.6705
    20.6743  20.6743  20.6824  20.6911  20.6973  20.6973  20.7114  20.7208
    20.7208  20.7808  20.8228  20.8228  20.8284  20.8504  20.8650  20.8671
    20.8671  20.8997  20.9001  20.9036  21.0054  21.0161  21.0161  21.0479
    21.1786  21.2075  21.2109  21.2109  21.2679  21.3116  21.3303  21.4150
    21.4150  21.4872  21.5650  21.5650  21.6510  21.8479  21.8643  21.8643
    21.9333  22.5890  22.6652  22.7703  22.7837  22.7837  22.8275  22.8498

          k = 0.0000 0.0000 0.3333 ( 21891 PWs)   bands (ev):

   -67.2843 -66.9474 -66.9470 -66.9431 -66.9431 -66.9128 -66.9121 -66.9084
   -66.9083 -66.7273 -66.7230 -66.7228 -66.7205 -66.6932 -66.6849 -66.6848
   -66.6756 -66.6584 -66.6547 -66.6545 -66.6543 -66.6512 -66.6477 -66.6474
   -66.6463 -66.6038 -66.5767 -66.5765 -66.5728 -66.5698 -66.5062 -66.5040
   -66.4967 -66.4964 -66.4943 -66.4209 -66.4166 -66.4138 -66.4116 -66.4110
   -66.4095 -66.4092 -66.4091 -66.3904 -66.3607 -66.3583 -66.3583 -66.3552
   -66.3164 -42.4437 -42.3411 -42.3411 -42.3054 -41.9973 -33.4012 -33.3879
   -33.3879 -33.1735 -33.1715 -33.1496 -33.1483 -33.0949 -33.0942 -33.0729
   -33.0707 -33.0567 -33.0554 -33.0530 -33.0519 -33.0434 -33.0428 -33.0422
   -33.0405 -33.0310 -33.0291 -33.0272 -33.0167 -33.0167 -33.0133 -32.9886
   -32.9886 -32.9194 -32.9182 -32.9142 -32.9080 -32.9064 -32.9001 -32.8986
   -32.8968 -32.8937 -32.8864 -32.8861 -32.8766 -32.8660 -32.8658 -32.8587
   -32.8533 -32.8448 -32.8402 -32.8362 -32.8356 -32.8331 -32.8272 -32.8164
   -32.8129 -32.8016 -32.7971 -32.7957 -32.7912 -32.7813 -32.7788 -32.7741
   -32.7691 -32.7669 -32.7526 -32.7521 -32.7504 -32.7384 -32.7295 -32.7277
   -32.7246 -32.7241 -32.7179 -32.7131 -32.7069 -32.7065 -32.7013 -32.6877
   -32.6858 -32.6832 -32.6774 -32.6713 -32.6686 -32.6665 -32.6579 -32.6574
   -32.6517 -32.6515 -32.6376 -32.6362 -32.6328 -32.6283 -32.6249 -32.6182
   -32.6159 -32.6129 -32.6118 -32.5983 -32.5945 -32.5942 -32.5913 -32.5899
   -32.5883 -32.5871 -32.5789 -32.5745 -32.5709 -32.5649 -32.5640 -32.5613
   -32.5573 -32.5563 -32.5462 -32.5323 -32.5283 -32.5265 -32.5263 -32.5183
   -32.5166 -32.5060 -32.5028 -32.4957 -32.4896 -32.4798 -32.4783 -32.4722
   -32.4719 -32.4707 -32.4639 -32.4623 -32.4519 -32.4498 -32.4492 -32.4486
   -32.4457 -32.4432 -32.4404 -32.4374 -32.4365 -32.4331 -32.4055 -32.3829
   -32.3805 -32.3802 -32.3696 -32.3608 -32.3582 -32.3539 -32.3488 -32.3460
   -32.3457 -17.1370 -17.0766 -17.0763 -16.7011 -16.6164 -16.6131 -16.6127
   -16.5353 -16.4175 -16.4168 -16.3585 -16.3457 -15.8653 -15.7973 -15.7971
    10.6840  11.4314  12.6798  12.7458  12.7573  12.8306  13.1371  13.1783
    13.2620  13.4041  13.6085  13.7872  13.8639  13.9796  14.1305  14.1881
    14.2042  14.2847  14.3969  14.4351  14.5237  14.5525  14.7069  14.8229
    14.8833  14.9218  15.0075  15.1118  15.1346  15.1862  15.2617  15.2636
    15.4371  15.4885  15.5414  15.6578  15.6728  15.7629  15.7967  15.8644
    15.8720  15.8979  15.9307  15.9501  16.0134  16.0530  16.0647  16.0982
    16.1218  16.1291  16.2289  16.2394  16.2844  16.3020  16.3487  16.3727
    16.3922  16.5528  16.5622  16.5815  16.6248  16.6308  16.6785  16.6988
    16.7470  16.7691  16.8293  16.8305  16.8714  16.8719  16.9013  16.9237
    16.9356  16.9588  16.9920  16.9932  17.0442  17.0545  17.0904  17.1083
    17.1348  17.1697  17.1957  17.2487  17.2514  17.2541  17.2725  17.2881
    17.2889  17.2920  17.2983  17.3212  17.3330  17.3430  17.3461  17.3642
    17.3757  17.3829  17.3846  17.3992  17.4046  17.4057  17.4090  17.4190
    17.4223  17.4322  17.4646  17.5247  17.5381  17.5523  17.5650  17.5655
    17.5718  17.6400  17.6521  17.6567  17.7138  17.7279  17.7326  17.7355
    17.7469  17.7772  17.7910  17.7919  17.8082  17.9281  17.9488  17.9873
    18.0185  18.0214  18.0227  18.0388  18.0582  18.0671  18.0831  18.1217
    18.1634  18.1703  18.2068  18.2298  18.2390  18.2812  18.3211  18.3251
    18.3802  18.3968  18.3979  18.4142  18.4237  18.4384  18.4418  18.4720
    18.4904  18.5096  18.5345  18.6420  18.6548  18.7591  18.9858  18.9999
    19.0655  19.0785  19.0937  19.1010  19.3224  19.3597  19.3717  19.3922
    19.3930  19.4068  19.4240  19.4469  19.4509  19.4720  19.4852  19.4854
    19.4959  19.5175  19.5233  19.5276  19.5343  19.7626  19.7973  19.8024
    19.8321  19.8367  19.8743  19.8950  19.9034  19.9321  19.9351  19.9503
    19.9621  19.9813  20.0333  20.0465  20.0616  20.0699  20.0855  20.1299
    20.1367  20.1586  20.1693  20.1773  20.1859  20.2005  20.2016  20.2096
    20.2162  20.2415  20.2739  20.3002  20.3046  20.3315  20.3394  20.3561
    20.3745  20.3890  20.3994  20.4314  20.4433  20.4491  20.4574  20.5139
    20.5146  20.5222  20.5463  20.5515  20.5703  20.5773  20.5902  20.6006
    20.6107  20.6141  20.6264  20.6365  20.6716  20.6915  20.6964  20.7107
    20.7251  20.7304  20.7372  20.7433  20.7478  20.7700  20.7717  20.7966
    20.7969  20.8023  20.8116  20.8272  20.8416  20.8428  20.8598  20.8714
    20.8801  20.8948  20.9085  20.9090  20.9507  20.9533  20.9798  20.9838
    21.0101  21.0111  21.0666  21.0842  21.0899  21.1029  21.1132  21.1236
    21.1364  21.1369  21.1694  21.1909  21.2144  21.2226  21.2495  21.2860
    21.3011  21.3469  21.4198  21.4380  21.4601  21.5724  21.5874  21.7200
    21.7206  21.7721  21.7934  21.8224  21.9120  22.0686  22.1319  22.1942

          k = 0.0000 0.3333 0.3333 ( 21886 PWs)   bands (ev):

   -67.2843 -66.9473 -66.9471 -66.9434 -66.9428 -66.9126 -66.9122 -66.9089
   -66.9078 -66.7272 -66.7229 -66.7228 -66.7206 -66.6932 -66.6849 -66.6849
   -66.6755 -66.6583 -66.6546 -66.6546 -66.6543 -66.6513 -66.6477 -66.6477
   -66.6461 -66.6037 -66.5767 -66.5766 -66.5728 -66.5697 -66.5055 -66.5044
   -66.4983 -66.4951 -66.4943 -66.4221 -66.4146 -66.4135 -66.4115 -66.4111
   -66.4105 -66.4095 -66.4088 -66.3905 -66.3607 -66.3583 -66.3583 -66.3552
   -66.3164 -42.4437 -42.3411 -42.3411 -42.3053 -41.9973 -33.4011 -33.3883
   -33.3882 -33.1725 -33.1721 -33.1504 -33.1477 -33.0955 -33.0951 -33.0736
   -33.0697 -33.0579 -33.0566 -33.0537 -33.0522 -33.0440 -33.0431 -33.0422
   -33.0417 -33.0328 -33.0265 -33.0247 -33.0196 -33.0167 -33.0158 -32.9960
   -32.9826 -32.9202 -32.9138 -32.9115 -32.9104 -32.9043 -32.9031 -32.8977
   -32.8972 -32.8957 -32.8925 -32.8858 -32.8732 -32.8702 -32.8661 -32.8629
   -32.8503 -32.8396 -32.8388 -32.8370 -32.8292 -32.8285 -32.8257 -32.8225
   -32.8096 -32.8014 -32.7993 -32.7967 -32.7860 -32.7845 -32.7813 -32.7795
   -32.7786 -32.7699 -32.7680 -32.7518 -32.7408 -32.7387 -32.7317 -32.7302
   -32.7267 -32.7212 -32.7175 -32.7115 -32.7081 -32.7008 -32.6992 -32.6861
   -32.6837 -32.6801 -32.6783 -32.6694 -32.6643 -32.6633 -32.6550 -32.6544
   -32.6492 -32.6466 -32.6417 -32.6370 -32.6329 -32.6270 -32.6259 -32.6224
   -32.6179 -32.6146 -32.6079 -32.6072 -32.6006 -32.5996 -32.5883 -32.5867
   -32.5859 -32.5802 -32.5789 -32.5754 -32.5724 -32.5694 -32.5679 -32.5641
   -32.5614 -32.5582 -32.5475 -32.5310 -32.5265 -32.5240 -32.5221 -32.5168
   -32.5116 -32.5017 -32.5013 -32.4971 -32.4879 -32.4871 -32.4809 -32.4738
   -32.4714 -32.4637 -32.4637 -32.4608 -32.4529 -32.4511 -32.4494 -32.4459
   -32.4454 -32.4423 -32.4404 -32.4396 -32.4356 -32.4303 -32.4017 -32.3817
   -32.3802 -32.3802 -32.3692 -32.3596 -32.3589 -32.3527 -32.3468 -32.3456
   -32.3452 -17.1368 -17.0764 -17.0764 -16.7007 -16.6163 -16.6127 -16.6127
   -16.5353 -16.4175 -16.4174 -16.3588 -16.3460 -15.8651 -15.7972 -15.7971
    10.9386  11.6561  11.6692  12.3156  12.9305  12.9802  13.3332  13.4035
    13.4882  13.5817  13.7444  13.8327  13.9729  13.9815  14.0268  14.1619
    14.2678  14.2706  14.3759  14.4618  14.4830  14.5614  14.5775  14.6954
    14.8727  14.9332  15.1000  15.1367  15.1594  15.2259  15.2854  15.2931
    15.3885  15.4152  15.5073  15.5931  15.6550  15.6743  15.7331  15.7467
    15.8944  15.9037  15.9248  15.9711  15.9919  16.0363  16.0673  16.1015
    16.1237  16.1434  16.1730  16.2044  16.2342  16.3051  16.3319  16.3584
    16.3813  16.4126  16.4566  16.4692  16.4771  16.5624  16.6091  16.6220
    16.6468  16.6790  16.7960  16.8441  16.8617  16.8700  16.8815  16.9254
    16.9448  16.9477  16.9960  17.0193  17.0683  17.0925  17.0988  17.1205
    17.1827  17.1940  17.2036  17.2081  17.2242  17.2319  17.2543  17.2766
    17.2867  17.2915  17.3233  17.3595  17.3610  17.3852  17.3869  17.4299
    17.4304  17.4478  17.4612  17.4655  17.4789  17.4820  17.5244  17.5361
    17.5636  17.5871  17.5990  17.6093  17.6197  17.6282  17.6313  17.6447
    17.6473  17.6806  17.7424  17.7536  17.7554  17.7618  17.7719  17.7933
    17.8084  17.8147  17.8338  17.8367  17.8669  17.8735  17.9222  17.9484
    17.9492  17.9664  17.9868  17.9995  18.0039  18.0243  18.0458  18.0607
    18.0702  18.0768  18.0977  18.1120  18.1227  18.1440  18.1588  18.1665
    18.2086  18.2352  18.2449  18.2807  18.3297  18.3507  18.4005  18.4783
    18.5418  18.5928  18.6137  18.6474  18.7584  18.9080  19.0151  19.0303
    19.0448  19.0687  19.0849  19.1219  19.1886  19.2091  19.5268  19.5329
    19.5429  19.5448  19.5829  19.6033  19.6772  19.7075  19.7176  19.7220
    19.7223  19.7359  19.7387  19.7824  19.7951  19.8035  19.8263  19.8278
    19.8715  19.8887  19.8963  19.9268  19.9777  19.9794  19.9896  20.0023
    20.0091  20.0261  20.0340  20.0475  20.0486  20.0598  20.0883  20.1069
    20.1429  20.1506  20.1643  20.1774  20.1922  20.1984  20.2148  20.2216
    20.2419  20.2504  20.2549  20.2979  20.3075  20.3188  20.3345  20.3434
    20.3534  20.3697  20.3955  20.4065  20.4168  20.4271  20.4295  20.4452
    20.4474  20.4629  20.4892  20.5079  20.5186  20.5229  20.5513  20.5646
    20.5840  20.5884  20.5992  20.6117  20.6173  20.6263  20.6383  20.6492
    20.6650  20.6712  20.6868  20.6995  20.7125  20.7233  20.7263  20.7504
    20.7520  20.7564  20.7694  20.7787  20.7860  20.8211  20.8290  20.8292
    20.8431  20.8546  20.8612  20.8749  20.8789  20.9194  20.9424  20.9631
    20.9637  20.9987  21.0005  21.0062  21.0233  21.0366  21.0561  21.0591
    21.1040  21.1125  21.1913  21.1969  21.2065  21.2223  21.2418  21.2948
    21.3475  21.3964  21.4044  21.4603  21.4730  21.5282  21.5737  21.6284
    21.7306  21.7954  21.8318  21.9036  22.0408  22.0454  22.1806  22.2084

          k = 0.3333 0.3333 0.3333 ( 21842 PWs)   bands (ev):

   -67.2843 -66.9472 -66.9471 -66.9434 -66.9428 -66.9126 -66.9122 -66.9089
   -66.9078 -66.7272 -66.7229 -66.7228 -66.7206 -66.6932 -66.6849 -66.6849
   -66.6755 -66.6584 -66.6546 -66.6545 -66.6544 -66.6512 -66.6478 -66.6477
   -66.6460 -66.6037 -66.5767 -66.5766 -66.5728 -66.5697 -66.5055 -66.5044
   -66.4983 -66.4951 -66.4943 -66.4221 -66.4146 -66.4135 -66.4115 -66.4111
   -66.4105 -66.4095 -66.4088 -66.3905 -66.3607 -66.3583 -66.3583 -66.3552
   -66.3164 -42.4436 -42.3411 -42.3411 -42.3053 -41.9973 -33.4008 -33.3880
   -33.3877 -33.1726 -33.1716 -33.1509 -33.1477 -33.0955 -33.0951 -33.0740
   -33.0693 -33.0583 -33.0552 -33.0531 -33.0494 -33.0442 -33.0440 -33.0415
   -33.0411 -33.0305 -33.0263 -33.0223 -33.0197 -33.0183 -33.0179 -32.9939
   -32.9884 -32.9182 -32.9117 -32.9089 -32.9065 -32.9051 -32.9017 -32.8985
   -32.8963 -32.8942 -32.8910 -32.8805 -32.8733 -32.8719 -32.8649 -32.8623
   -32.8514 -32.8419 -32.8394 -32.8379 -32.8378 -32.8301 -32.8294 -32.8232
   -32.8097 -32.8086 -32.8046 -32.8008 -32.7879 -32.7824 -32.7735 -32.7727
   -32.7677 -32.7645 -32.7579 -32.7497 -32.7401 -32.7328 -32.7313 -32.7279
   -32.7276 -32.7261 -32.7203 -32.7082 -32.7069 -32.7020 -32.6988 -32.6836
   -32.6789 -32.6783 -32.6769 -32.6739 -32.6695 -32.6592 -32.6572 -32.6537
   -32.6522 -32.6446 -32.6427 -32.6413 -32.6388 -32.6281 -32.6254 -32.6211
   -32.6148 -32.6146 -32.6070 -32.6047 -32.6021 -32.6013 -32.5876 -32.5861
   -32.5853 -32.5804 -32.5788 -32.5727 -32.5686 -32.5678 -32.5668 -32.5610
   -32.5604 -32.5533 -32.5502 -32.5292 -32.5252 -32.5239 -32.5212 -32.5177
   -32.5161 -32.5017 -32.5009 -32.4929 -32.4863 -32.4861 -32.4837 -32.4741
   -32.4692 -32.4641 -32.4632 -32.4599 -32.4520 -32.4498 -32.4483 -32.4450
   -32.4445 -32.4407 -32.4401 -32.4398 -32.4355 -32.4312 -32.4012 -32.3816
   -32.3802 -32.3794 -32.3687 -32.3591 -32.3588 -32.3525 -32.3468 -32.3450
   -32.3450 -17.1368 -17.0764 -17.0764 -16.7007 -16.6163 -16.6127 -16.6127
   -16.5352 -16.4174 -16.4174 -16.3588 -16.3460 -15.8651 -15.7971 -15.7971
    11.1879  11.8821  11.8824  11.9238  12.5073  12.5187  12.6237  13.1861
    13.6753  13.7327  14.0237  14.0888  14.1551  14.2005  14.2370  14.3703
    14.4680  14.4952  14.5447  14.5841  14.6250  14.7305  14.7724  14.8170
    14.8279  14.9550  15.0318  15.0418  15.1110  15.2481  15.2667  15.2974
    15.3196  15.4078  15.4652  15.4685  15.5358  15.5611  15.6019  15.6705
    15.6765  15.7389  15.8017  15.8489  15.8494  15.8885  15.9678  15.9775
    16.0998  16.1126  16.1920  16.2039  16.2331  16.2509  16.2703  16.2843
    16.2884  16.3670  16.4300  16.4338  16.5034  16.5161  16.5650  16.5967
    16.6619  16.7345  16.7442  16.8429  16.8448  16.8828  16.8919  16.9424
    16.9654  16.9798  16.9814  17.0361  17.0680  17.0827  17.0984  17.1189
    17.1444  17.1558  17.1671  17.1710  17.1933  17.2153  17.2270  17.2408
    17.2486  17.2763  17.2919  17.3177  17.3361  17.3694  17.3727  17.3927
    17.3954  17.4337  17.4391  17.4795  17.5136  17.5663  17.5792  17.5902
    17.6244  17.6325  17.6546  17.6693  17.6983  17.7085  17.7261  17.7609
    17.7706  17.7752  17.7853  17.8060  17.8120  17.8254  17.8279  17.8470
    17.8580  17.8642  17.8667  17.8818  17.8959  17.9024  17.9332  17.9341
    17.9476  17.9723  17.9774  17.9891  18.0082  18.0235  18.0247  18.0423
    18.0473  18.0919  18.1368  18.1470  18.1739  18.1813  18.1857  18.1968
    18.3210  18.3307  18.3430  18.4021  18.4107  18.4519  18.4528  18.4836
    18.5025  18.5543  18.5665  18.6262  18.6726  18.7456  18.9729  19.1235
    19.1253  19.1354  19.2540  19.2757  19.2878  19.3294  19.3365  19.3453
    19.3555  19.3830  19.3834  19.6369  19.6467  19.6495  19.6764  19.6777
    19.6985  19.7501  19.7617  19.7704  19.7903  19.7954  19.8001  19.8322
    19.8590  19.8616  19.9030  19.9604  19.9687  19.9702  19.9952  20.0066
    20.0316  20.0439  20.0493  20.0669  20.0807  20.0885  20.1059  20.1399
    20.1657  20.1770  20.2107  20.2197  20.2393  20.2485  20.2617  20.2928
    20.3048  20.3084  20.3173  20.3213  20.3312  20.3428  20.3601  20.3808
    20.3954  20.3963  20.4068  20.4143  20.4281  20.4418  20.4484  20.4731
    20.4733  20.4881  20.4891  20.5028  20.5147  20.5241  20.5389  20.5454
    20.5580  20.5740  20.5827  20.5925  20.5954  20.6120  20.6264  20.6513
    20.6597  20.6664  20.6815  20.6892  20.6987  20.7173  20.7369  20.7411
    20.7658  20.7703  20.7763  20.7943  20.8000  20.8149  20.8186  20.8217
    20.8432  20.8515  20.8771  20.8805  20.8966  20.9019  20.9186  20.9396
    20.9435  20.9581  20.9909  21.0019  21.0425  21.0507  21.0786  21.0816
    21.0845  21.1162  21.1490  21.1913  21.2216  21.2351  21.2492  21.2700
    21.3515  21.3889  21.4048  21.5225  21.5317  21.5998  21.6691  21.8602
    21.9521  21.9873  21.9938  22.0507  22.0905  22.1009  22.1246  22.2707

          k = 0.3333 0.0000 0.0000 ( 21891 PWs)   bands (ev):

   -67.2843 -66.9475 -66.9467 -66.9431 -66.9431 -66.9132 -66.9116 -66.9084
   -66.9084 -66.7274 -66.7228 -66.7228 -66.7204 -66.6932 -66.6848 -66.6848
   -66.6758 -66.6584 -66.6546 -66.6546 -66.6543 -66.6512 -66.6475 -66.6475
   -66.6466 -66.6038 -66.5765 -66.5765 -66.5728 -66.5699 -66.5071 -66.5027
   -66.4967 -66.4967 -66.4943 -66.4191 -66.4166 -66.4166 -66.4118 -66.4107
   -66.4092 -66.4092 -66.4086 -66.3903 -66.3607 -66.3583 -66.3583 -66.3552
   -66.3164 -42.4436 -42.3412 -42.3412 -42.3053 -41.9973 -33.4010 -33.3879
   -33.3879 -33.1743 -33.1719 -33.1490 -33.1490 -33.0953 -33.0949 -33.0715
   -33.0715 -33.0594 -33.0535 -33.0486 -33.0475 -33.0453 -33.0453 -33.0415
   -33.0415 -33.0295 -33.0283 -33.0283 -33.0184 -33.0144 -33.0131 -32.9909
   -32.9909 -32.9244 -32.9134 -32.9134 -32.9112 -32.9039 -32.8946 -32.8946
   -32.8946 -32.8916 -32.8864 -32.8864 -32.8780 -32.8672 -32.8613 -32.8613
   -32.8540 -32.8450 -32.8450 -32.8434 -32.8428 -32.8309 -32.8309 -32.8281
   -32.8118 -32.7977 -32.7977 -32.7922 -32.7810 -32.7803 -32.7763 -32.7763
   -32.7680 -32.7606 -32.7606 -32.7582 -32.7424 -32.7332 -32.7307 -32.7243
   -32.7243 -32.7215 -32.7180 -32.7084 -32.7084 -32.6971 -32.6971 -32.6932
   -32.6889 -32.6814 -32.6754 -32.6754 -32.6712 -32.6649 -32.6611 -32.6540
   -32.6540 -32.6534 -32.6435 -32.6409 -32.6409 -32.6294 -32.6294 -32.6286
   -32.6284 -32.6047 -32.5983 -32.5967 -32.5950 -32.5950 -32.5925 -32.5836
   -32.5828 -32.5828 -32.5808 -32.5720 -32.5720 -32.5659 -32.5590 -32.5590
   -32.5553 -32.5553 -32.5509 -32.5423 -32.5273 -32.5273 -32.5238 -32.5170
   -32.5170 -32.5091 -32.4946 -32.4937 -32.4923 -32.4798 -32.4798 -32.4728
   -32.4728 -32.4660 -32.4660 -32.4618 -32.4572 -32.4512 -32.4472 -32.4471
   -32.4471 -32.4453 -32.4372 -32.4372 -32.4362 -32.4307 -32.4092 -32.3837
   -32.3796 -32.3796 -32.3716 -32.3575 -32.3575 -32.3547 -32.3503 -32.3456
   -32.3456 -17.1372 -17.0765 -17.0765 -16.7015 -16.6164 -16.6130 -16.6130
   -16.5353 -16.4168 -16.4168 -16.3581 -16.3454 -15.8654 -15.7972 -15.7972
    10.6842  11.4338  12.6802  12.7575  12.7575  12.7868  13.0959  13.2708
    13.2708  13.2901  13.6343  13.7922  13.8746  14.0101  14.0321  14.0321
    14.2450  14.4006  14.4006  14.4228  14.5200  14.7621  14.7677  14.7792
    14.7792  14.9821  14.9821  15.2371  15.2371  15.2372  15.2483  15.3378
    15.3435  15.4430  15.4430  15.5608  15.6009  15.6009  15.6278  15.8816
    15.9044  15.9044  15.9662  16.0083  16.0630  16.0851  16.1350  16.1350
    16.1977  16.2069  16.2646  16.2699  16.2853  16.3280  16.3280  16.3979
    16.3979  16.4033  16.4351  16.5938  16.5938  16.5993  16.6407  16.6557
    16.7422  16.7927  16.7949  16.7949  16.9077  16.9403  16.9403  16.9503
    16.9911  16.9911  16.9930  17.0302  17.0628  17.0812  17.0812  17.1357
    17.1698  17.1698  17.1785  17.1950  17.2120  17.2523  17.2757  17.2757
    17.2973  17.3051  17.3105  17.3213  17.3373  17.3373  17.3675  17.3675
    17.3748  17.3956  17.3956  17.3994  17.4096  17.4171  17.4171  17.4432
    17.4556  17.4716  17.4716  17.4828  17.4840  17.5023  17.5351  17.5351
    17.5382  17.6477  17.6691  17.7096  17.7096  17.7463  17.7606  17.7606
    17.7754  17.7950  17.7973  17.8167  17.8167  17.9589  17.9589  17.9604
    17.9912  18.0336  18.0419  18.0419  18.0864  18.0886  18.1103  18.1103
    18.1312  18.1600  18.2080  18.2080  18.2360  18.2912  18.2938  18.2938
    18.3385  18.3385  18.3737  18.3913  18.4276  18.4276  18.4384  18.4417
    18.4686  18.4686  18.4966  18.6886  18.6886  18.7666  18.9973  18.9973
    19.0840  19.0840  19.0920  19.0947  19.3179  19.3179  19.3575  19.3696
    19.4222  19.4222  19.4425  19.4631  19.4674  19.4719  19.4719  19.4779
    19.4788  19.4971  19.5232  19.5232  19.5341  19.7766  19.7890  19.7890
    19.8293  19.8324  19.8799  19.8799  19.8977  19.9045  19.9754  19.9864
    19.9864  20.0053  20.0387  20.0526  20.0665  20.0665  20.0989  20.1296
    20.1335  20.1335  20.1762  20.1764  20.1791  20.1816  20.1816  20.2181
    20.2181  20.2593  20.2659  20.2924  20.3079  20.3098  20.3098  20.3692
    20.3692  20.3986  20.4037  20.4254  20.4254  20.4628  20.4802  20.5141
    20.5141  20.5172  20.5462  20.5462  20.5572  20.5659  20.6204  20.6204
    20.6228  20.6353  20.6419  20.6744  20.6744  20.6818  20.7081  20.7081
    20.7184  20.7205  20.7313  20.7461  20.7567  20.7657  20.7657  20.7944
    20.7944  20.8100  20.8120  20.8200  20.8802  20.8804  20.8804  20.8853
    20.8935  20.9079  20.9079  20.9322  20.9568  20.9568  20.9803  20.9879
    21.0315  21.0315  21.0379  21.0493  21.0515  21.0721  21.0721  21.1343
    21.1407  21.1472  21.1472  21.1851  21.1963  21.2236  21.2236  21.2778
    21.3146  21.3505  21.4022  21.4022  21.5089  21.6316  21.6316  21.6702
    21.7274  21.7580  21.7963  21.8138  21.9868  21.9868  22.1872  22.1872

          k = 0.3333-0.3333 0.0000 ( 21886 PWs)   bands (ev):

   -67.2843 -66.9473 -66.9470 -66.9431 -66.9431 -66.9128 -66.9121 -66.9084
   -66.9083 -66.7273 -66.7230 -66.7228 -66.7205 -66.6932 -66.6849 -66.6848
   -66.6756 -66.6584 -66.6546 -66.6545 -66.6543 -66.6512 -66.6478 -66.6475
   -66.6463 -66.6037 -66.5767 -66.5765 -66.5728 -66.5698 -66.5062 -66.5040
   -66.4967 -66.4964 -66.4943 -66.4209 -66.4166 -66.4138 -66.4116 -66.4110
   -66.4095 -66.4092 -66.4091 -66.3904 -66.3607 -66.3583 -66.3583 -66.3552
   -66.3164 -42.4436 -42.3411 -42.3411 -42.3053 -41.9973 -33.4012 -33.3882
   -33.3878 -33.1737 -33.1719 -33.1498 -33.1492 -33.0957 -33.0949 -33.0732
   -33.0714 -33.0569 -33.0557 -33.0511 -33.0509 -33.0448 -33.0434 -33.0418
   -33.0415 -33.0301 -33.0284 -33.0253 -33.0185 -33.0178 -33.0163 -32.9919
   -32.9911 -32.9213 -32.9153 -32.9137 -32.9096 -32.9034 -32.8985 -32.8982
   -32.8946 -32.8929 -32.8865 -32.8862 -32.8734 -32.8659 -32.8650 -32.8618
   -32.8559 -32.8440 -32.8398 -32.8376 -32.8360 -32.8312 -32.8304 -32.8170
   -32.8163 -32.8045 -32.8039 -32.7937 -32.7926 -32.7855 -32.7792 -32.7751
   -32.7705 -32.7668 -32.7628 -32.7502 -32.7461 -32.7381 -32.7276 -32.7270
   -32.7244 -32.7222 -32.7186 -32.7111 -32.7044 -32.7003 -32.6996 -32.6873
   -32.6871 -32.6808 -32.6756 -32.6696 -32.6651 -32.6562 -32.6560 -32.6549
   -32.6518 -32.6500 -32.6457 -32.6410 -32.6331 -32.6297 -32.6244 -32.6189
   -32.6181 -32.6149 -32.6067 -32.6012 -32.6003 -32.5962 -32.5933 -32.5918
   -32.5914 -32.5865 -32.5793 -32.5743 -32.5724 -32.5646 -32.5625 -32.5617
   -32.5576 -32.5559 -32.5485 -32.5330 -32.5264 -32.5244 -32.5218 -32.5193
   -32.5164 -32.5054 -32.5037 -32.4913 -32.4905 -32.4795 -32.4776 -32.4728
   -32.4706 -32.4702 -32.4651 -32.4617 -32.4512 -32.4493 -32.4487 -32.4472
   -32.4454 -32.4421 -32.4392 -32.4367 -32.4350 -32.4328 -32.4049 -32.3824
   -32.3796 -32.3793 -32.3692 -32.3595 -32.3581 -32.3534 -32.3475 -32.3452
   -32.3450 -17.1370 -17.0766 -17.0763 -16.7011 -16.6164 -16.6131 -16.6127
   -16.5353 -16.4175 -16.4168 -16.3585 -16.3457 -15.8653 -15.7972 -15.7970
    10.9389  11.6565  11.6711  12.3189  12.9288  12.9593  13.3207  13.4297
    13.4696  13.5614  13.6637  13.7938  13.9477  13.9783  14.0702  14.0789
    14.2282  14.3125  14.3628  14.4224  14.5688  14.5897  14.6955  14.8512
    14.9669  14.9993  15.0960  15.1256  15.1480  15.2579  15.3027  15.3472
    15.3865  15.3991  15.4447  15.5282  15.5597  15.6130  15.6703  15.7232
    15.7996  15.8442  15.9458  15.9854  15.9999  16.0049  16.0544  16.1084
    16.1338  16.1650  16.2108  16.2167  16.2527  16.2896  16.3252  16.3501
    16.3673  16.3932  16.4794  16.5055  16.5332  16.5366  16.5946  16.6405
    16.7228  16.7400  16.7725  16.8056  16.8266  16.8944  16.9088  16.9314
    16.9506  17.0042  17.0231  17.0308  17.0454  17.0530  17.1089  17.1171
    17.1462  17.1606  17.1799  17.2015  17.2195  17.2374  17.2644  17.2826
    17.2868  17.3334  17.3390  17.3398  17.3645  17.3798  17.3898  17.4119
    17.4386  17.4483  17.4673  17.4973  17.5107  17.5143  17.5288  17.5547
    17.5883  17.5925  17.6068  17.6141  17.6182  17.6247  17.6292  17.6628
    17.6725  17.7184  17.7193  17.7340  17.7403  17.7520  17.7597  17.7831
    17.8021  17.8396  17.8432  17.8512  17.8808  17.8874  17.9200  17.9434
    17.9560  17.9668  17.9820  18.0099  18.0316  18.0414  18.0514  18.0544
    18.0551  18.0779  18.0823  18.0970  18.1003  18.1195  18.1425  18.1523
    18.1803  18.1975  18.2096  18.2769  18.2785  18.3502  18.4060  18.5011
    18.5484  18.5952  18.6240  18.6393  18.7519  18.8900  18.9913  19.0223
    19.0562  19.0754  19.0875  19.1127  19.1880  19.2097  19.5196  19.5396
    19.5478  19.5513  19.5721  19.6047  19.6898  19.7112  19.7136  19.7162
    19.7277  19.7400  19.7479  19.7601  19.7821  19.8103  19.8178  19.8287
    19.8824  19.9139  19.9194  19.9321  19.9516  19.9682  19.9822  19.9873
    19.9926  20.0123  20.0258  20.0545  20.0656  20.0738  20.1194  20.1218
    20.1330  20.1532  20.1540  20.1763  20.1928  20.1974  20.2194  20.2284
    20.2332  20.2656  20.2763  20.2852  20.3044  20.3142  20.3252  20.3481
    20.3542  20.3603  20.3824  20.3847  20.4005  20.4039  20.4188  20.4359
    20.4534  20.4606  20.4735  20.5267  20.5350  20.5516  20.5547  20.5711
    20.5805  20.5845  20.5988  20.6038  20.6200  20.6260  20.6548  20.6688
    20.6786  20.6917  20.6920  20.7044  20.7114  20.7199  20.7316  20.7507
    20.7540  20.7791  20.7871  20.7990  20.8095  20.8214  20.8252  20.8367
    20.8442  20.8497  20.8695  20.8853  20.9002  20.9109  20.9379  20.9403
    20.9406  20.9820  21.0036  21.0253  21.0508  21.0725  21.0778  21.1053
    21.1101  21.1132  21.1388  21.1536  21.1831  21.2478  21.2534  21.2838
    21.2914  21.3181  21.3819  21.4598  21.4606  21.5569  21.6003  21.6713
    21.7473  21.7902  21.8012  21.8784  21.8938  22.1181  22.1242  22.2875

     the Fermi energy is    18.6737 ev

!    total energy              =  -12837.86584135 Ry
     estimated scf accuracy    <       0.00000073 Ry
     smearing contrib. (-TS)   =       0.05277142 Ry
     internal energy E=F+TS    =  -12837.91861278 Ry

     The total energy is F=E-TS. E is the sum of the following terms:
     one-electron contribution =   -5633.24507078 Ry
     hartree contribution      =    3329.13832658 Ry
     xc contribution           =   -1458.54326744 Ry
     ewald contribution        =   -9075.26860115 Ry

     total magnetization       =   110.38 Bohr mag/cell
     absolute magnetization    =   121.81 Bohr mag/cell

     convergence has been achieved in  22 iterations

     Writing all to output data dir ./outdir/fe54_5mo_clust.save/ :
     XML data file, charge density, pseudopotentials, collected wavefunctions

     init_run     :     67.68s CPU     69.86s WALL (       1 calls)
     electrons    :   5264.70s CPU   5385.50s WALL (       1 calls)

     Called by init_run:
     wfcinit      :     63.32s CPU     65.13s WALL (       1 calls)
     potinit      :      0.95s CPU      1.02s WALL (       1 calls)
     hinit0       :      1.25s CPU      1.28s WALL (       1 calls)

     Called by electrons:
     c_bands      :   4724.57s CPU   4824.34s WALL (      22 calls)
     sum_band     :    482.48s CPU    497.73s WALL (      22 calls)
     v_of_rho     :     11.86s CPU     12.14s WALL (      23 calls)
     newd         :     43.13s CPU     48.77s WALL (      23 calls)
     mix_rho      :      4.06s CPU      4.16s WALL (      22 calls)

     Called by c_bands:
     init_us_2    :     27.24s CPU     27.36s WALL (     540 calls)
     cegterg      :   4611.61s CPU   4711.00s WALL (     264 calls)

     Called by *egterg:
     cdiaghg      :    622.20s CPU    642.69s WALL (    1343 calls)
     h_psi        :   1846.77s CPU   1895.79s WALL (    1355 calls)
     s_psi        :    434.96s CPU    436.15s WALL (    1355 calls)
     g_psi        :     11.34s CPU     11.42s WALL (    1079 calls)

     Called by h_psi:
     h_psi:calbec :    466.74s CPU    470.26s WALL (    1355 calls)
     vloc_psi     :    931.45s CPU    965.85s WALL (    1355 calls)
                                        0.00s GPU  (    1355 calls)
     add_vuspsi   :    440.28s CPU    441.86s WALL (    1355 calls)

     General routines
     calbec       :    653.70s CPU    658.35s WALL (    1619 calls)
     fft          :      5.07s CPU      5.38s WALL (     569 calls)
     ffts         :      1.54s CPU      1.62s WALL (     511 calls)
     fftw         :    978.08s CPU   1016.30s WALL (  778458 calls)
     interpolate  :      1.01s CPU      1.05s WALL (      46 calls)

     Parallel routines

     PWSCF        :      1h28m CPU      1h30m WALL


   This run was terminated on:  14:36:15  20Jun2026            

=------------------------------------------------------------------------------=
   JOB DONE.
=------------------------------------------------------------------------------=
