
     Program PWSCF v.7.5 starts on  1Jul2026 at 20:19:23 

     This program is part of the open-source Quantum ESPRESSO suite
     for quantum simulation of materials; please cite
         "P. Giannozzi et al., J. Phys.:Condens. Matter 21 395502 (2009);
         "P. Giannozzi et al., J. Phys.:Condens. Matter 29 465901 (2017);
         "P. Giannozzi et al., J. Chem. Phys. 152 154105 (2020);
          URL http://www.quantum-espresso.org", 
     in publications or presentations arising from this work. More details at
     http://www.quantum-espresso.org/quote

     Parallel version (MPI & OpenMP), running on       4 processor cores
     Number of MPI processes:                 4
     Threads/MPI process:                     1

     MPI processes distributed on     1 nodes
     11399 MiB available memory on the printing compute node when the environment starts

     Reading input from relax_end.scf.in

     Current dimensions of program PWSCF are:
     Max number of different atomic species (ntypx) = 10
     Max number of k-points (npk) =  40000
     Max angular momentum in pseudopotentials (lmaxx) =  4
     file Fe.pbe-spn-rrkjus_psl.1.0.0.UPF: wavefunction(s)  3P 3D renormalized
     file Ni.pbe-spn-rrkjus_psl.1.0.0.UPF: wavefunction(s)  3P 3D renormalized

     R & G space division:  proc/nbgrp/npool/nimage =       4
     Subspace diagonalization in iterative solution of the eigenvalue problem:
     a serial algorithm will be used


     Parallelization info
     --------------------
     sticks:   dense  smooth     PW     G-vecs:    dense   smooth      PW
     Min         841     421    122                36633    12965    2030
     Max         842     422    123                36634    12968    2031
     Sum        3365    1685    489               146533    51867    8121

     Using Slab Decomposition



     bravais-lattice index     =            1
     lattice parameter (alat)  =      10.8320  a.u.
     unit-cell volume          =    1270.9427 (a.u.)^3
     number of atoms/cell      =           15
     number of atomic types    =            2
     number of electrons       =       242.00
     number of Kohn-Sham states=          145
     kinetic-energy cutoff     =      45.0000  Ry
     charge density cutoff     =     360.0000  Ry
     scf convergence threshold =      1.0E-06
     mixing beta               =       0.1000
     number of iterations used =            8  local-TF  mixing
     energy convergence thresh.=      1.0E-04
     force convergence thresh. =      1.0E-03
     Exchange-correlation= PBE
                           (   1   4   3   4   0   0   0)
     nstep                     =           50


     celldm(1)=  10.832000  celldm(2)=   0.000000  celldm(3)=   0.000000
     celldm(4)=   0.000000  celldm(5)=   0.000000  celldm(6)=   0.000000

     crystal axes: (cart. coord. in units of alat)
               a(1) = (   1.000000   0.000000   0.000000 )  
               a(2) = (   0.000000   1.000000   0.000000 )  
               a(3) = (   0.000000   0.000000   1.000000 )  

     reciprocal axes: (cart. coord. in units 2 pi/alat)
               b(1) = (  1.000000  0.000000  0.000000 )  
               b(2) = (  0.000000  1.000000  0.000000 )  
               b(3) = (  0.000000  0.000000  1.000000 )  


     PseudoPot. # 1 for Fe read from file:
     ../../pseudo/Fe.pbe-spn-rrkjus_psl.1.0.0.UPF
     MD5 check sum: 72ea77fed8e64ab3a2ccf2804dfc1862
     Pseudo is Ultrasoft + core correction, Zval = 16.0
     Generated using &quot;atomic&quot; code by A. Dal Corso  v.6.3
     Using radial grid of 1191 points,  6 beta functions with: 
                l(1) =   0
                l(2) =   0
                l(3) =   1
                l(4) =   1
                l(5) =   2
                l(6) =   2
     Q(r) pseudized with 0 coefficients 


     PseudoPot. # 2 for Ni read from file:
     ../../pseudo/Ni.pbe-spn-rrkjus_psl.1.0.0.UPF
     MD5 check sum: 8b3fc9aac6dafe35f580d41bb18c3945
     Pseudo is Ultrasoft + core correction, Zval = 18.0
     Generated using &quot;atomic&quot; code by A. Dal Corso  v.6.3
     Using radial grid of 1195 points,  6 beta functions with: 
                l(1) =   0
                l(2) =   0
                l(3) =   1
                l(4) =   1
                l(5) =   2
                l(6) =   2
     Q(r) pseudized with 0 coefficients 


     atomic species   valence    mass     pseudopotential
     Fe               16.00    55.84500     Fe( 1.00)
     Ni               18.00    58.69300     Ni( 1.00)

     Starting magnetic structure 
     atomic species   magnetization
     Fe              0.500
     Ni              0.000

      6 Sym. Ops. (no inversion) found



   Cartesian axes

     site n.     atom                  positions (alat units)
         1        Ni     tau(   1) = (   0.0000000   0.0000000   0.0000000  )
         2        Fe     tau(   2) = (   0.5000000   0.0000000   0.0000000  )
         3        Fe     tau(   3) = (   0.0000000   0.5000000   0.0000000  )
         4        Fe     tau(   4) = (   0.5000000   0.5000000   0.0000000  )
         5        Fe     tau(   5) = (   0.0000000   0.0000000   0.5000000  )
         6        Fe     tau(   6) = (   0.5000000   0.0000000   0.5000000  )
         7        Fe     tau(   7) = (   0.0000000   0.5000000   0.5000000  )
         8        Fe     tau(   8) = (   0.5000000   0.5000000   0.5000000  )
         9        Fe     tau(   9) = (   0.7500000   0.2500000   0.2500000  )
        10        Fe     tau(  10) = (   0.2500000   0.7500000   0.2500000  )
        11        Fe     tau(  11) = (   0.7500000   0.7500000   0.2500000  )
        12        Fe     tau(  12) = (   0.2500000   0.2500000   0.7500000  )
        13        Fe     tau(  13) = (   0.7500000   0.2500000   0.7500000  )
        14        Fe     tau(  14) = (   0.2500000   0.7500000   0.7500000  )
        15        Fe     tau(  15) = (   0.7500000   0.7500000   0.7500000  )

     number of k points=    13  Marzari-Vanderbilt smearing, width (Ry)=  0.0200
                       cart. coord. in units 2pi/alat
        k(    1) = (   0.0000000   0.0000000   0.0000000), wk =   0.0156250
        k(    2) = (   0.0000000   0.0000000   0.2500000), wk =   0.0937500
        k(    3) = (   0.0000000   0.0000000  -0.5000000), wk =   0.0468750
        k(    4) = (   0.0000000   0.2500000   0.2500000), wk =   0.0937500
        k(    5) = (   0.0000000   0.2500000  -0.5000000), wk =   0.1875000
        k(    6) = (   0.0000000  -0.5000000  -0.5000000), wk =   0.0468750
        k(    7) = (   0.2500000   0.2500000   0.2500000), wk =   0.0312500
        k(    8) = (   0.2500000   0.2500000  -0.5000000), wk =   0.0937500
        k(    9) = (   0.2500000  -0.5000000  -0.5000000), wk =   0.0937500
        k(   10) = (  -0.5000000  -0.5000000  -0.5000000), wk =   0.0156250
        k(   11) = (  -0.2500000   0.0000000   0.2500000), wk =   0.0937500
        k(   12) = (   0.2500000  -0.2500000   0.2500000), wk =   0.0937500
        k(   13) = (   0.2500000  -0.2500000  -0.5000000), wk =   0.0937500

     Dense  grid:   146533 G-vectors     FFT dimensions: (  72,  72,  72)

     Smooth grid:    51867 G-vectors     FFT dimensions: (  48,  48,  48)

     Estimated max dynamical RAM per process >     270.75 MB

     Estimated total dynamical RAM >       1.06 GB

     Check: negative core charge=   -0.000004
     Generating pointlists ...
     new r_m :   0.1786 (alat units)  1.9348 (a.u.) for type    1
     new r_m :   0.1786 (alat units)  1.9348 (a.u.) for type    2

     Initial potential from superposition of free atoms

     starting charge     241.9936, renormalised to     242.0000
     Starting wfcs are  150 randomized atomic wfcs

     total cpu time spent up to now is        9.2 secs

     per-process dynamical memory:   147.6 Mb

     Self-consistent Calculation

     iteration #  1     ecut=    45.00 Ry     beta= 0.10
     Davidson diagonalization with overlap
     ethr =  1.00E-02,  avg # of iterations =  3.3

     total cpu time spent up to now is       35.2 secs

     total energy              =   -3802.92891227 Ry
     estimated scf accuracy    <       8.68875585 Ry

     total magnetization       =    47.52 Bohr mag/cell
     absolute magnetization    =    48.97 Bohr mag/cell

     iteration #  2     ecut=    45.00 Ry     beta= 0.10
     Davidson diagonalization with overlap
     ethr =  3.59E-03,  avg # of iterations =  1.4

     negative rho (up, down):  0.000E+00 4.023E-03

     total cpu time spent up to now is       55.1 secs

     total energy              =   -3806.46357790 Ry
     estimated scf accuracy    <       7.01847234 Ry

     total magnetization       =    47.37 Bohr mag/cell
     absolute magnetization    =    49.00 Bohr mag/cell

     iteration #  3     ecut=    45.00 Ry     beta= 0.10
     Davidson diagonalization with overlap
     ethr =  2.90E-03,  avg # of iterations =  2.5

     negative rho (up, down):  0.000E+00 5.230E-03

     total cpu time spent up to now is       77.6 secs

     total energy              =   -3807.21429168 Ry
     estimated scf accuracy    <      15.84866889 Ry

     total magnetization       =    41.64 Bohr mag/cell
     absolute magnetization    =    48.67 Bohr mag/cell

     iteration #  4     ecut=    45.00 Ry     beta= 0.10
     Davidson diagonalization with overlap
     ethr =  2.90E-03,  avg # of iterations =  1.9

     negative rho (up, down):  0.000E+00 5.151E-03

     total cpu time spent up to now is       98.9 secs

     total energy              =   -3807.49264806 Ry
     estimated scf accuracy    <      23.79730815 Ry

     total magnetization       =    36.67 Bohr mag/cell
     absolute magnetization    =    41.79 Bohr mag/cell

     iteration #  5     ecut=    45.00 Ry     beta= 0.10
     Davidson diagonalization with overlap
     ethr =  2.90E-03,  avg # of iterations =  1.0

     negative rho (up, down):  0.000E+00 7.140E-03

     total cpu time spent up to now is      118.1 secs

     total energy              =   -3808.12190039 Ry
     estimated scf accuracy    <      23.21833834 Ry

     total magnetization       =    36.82 Bohr mag/cell
     absolute magnetization    =    41.69 Bohr mag/cell

     iteration #  6     ecut=    45.00 Ry     beta= 0.10
     Davidson diagonalization with overlap
     ethr =  2.90E-03,  avg # of iterations =  1.5

     negative rho (up, down):  0.000E+00 9.068E-03

     total cpu time spent up to now is      138.7 secs

     total energy              =   -3808.03033954 Ry
     estimated scf accuracy    <      30.99199872 Ry

     total magnetization       =    34.47 Bohr mag/cell
     absolute magnetization    =    39.66 Bohr mag/cell

     iteration #  7     ecut=    45.00 Ry     beta= 0.10
     Davidson diagonalization with overlap
     ethr =  2.90E-03,  avg # of iterations =  2.2

     negative rho (up, down):  0.000E+00 9.077E-03

     total cpu time spent up to now is      162.3 secs

     total energy              =   -3808.84844560 Ry
     estimated scf accuracy    <      55.15442367 Ry

     total magnetization       =    35.85 Bohr mag/cell
     absolute magnetization    =    47.59 Bohr mag/cell

     iteration #  8     ecut=    45.00 Ry     beta= 0.10
     Davidson diagonalization with overlap
     ethr =  2.90E-03,  avg # of iterations =  1.0

     negative rho (up, down):  5.756E-05 9.023E-03

     total cpu time spent up to now is      181.7 secs

     total energy              =   -3808.67163343 Ry
     estimated scf accuracy    <      48.64151946 Ry

     total magnetization       =    35.66 Bohr mag/cell
     absolute magnetization    =    46.58 Bohr mag/cell

     iteration #  9     ecut=    45.00 Ry     beta= 0.10
     Davidson diagonalization with overlap
     ethr =  2.90E-03,  avg # of iterations =  1.0

     negative rho (up, down):  7.724E-04 9.007E-03

     total cpu time spent up to now is      201.0 secs

     total energy              =   -3807.94135822 Ry
     estimated scf accuracy    <      42.02531351 Ry

     total magnetization       =    35.60 Bohr mag/cell
     absolute magnetization    =    45.35 Bohr mag/cell

     iteration # 10     ecut=    45.00 Ry     beta= 0.10
     Davidson diagonalization with overlap
     ethr =  2.90E-03,  avg # of iterations =  1.5

     negative rho (up, down):  8.341E-04 8.376E-03

     total cpu time spent up to now is      221.7 secs

     total energy              =   -3807.39290217 Ry
     estimated scf accuracy    <      16.73797144 Ry

     total magnetization       =    35.51 Bohr mag/cell
     absolute magnetization    =    41.23 Bohr mag/cell

     iteration # 11     ecut=    45.00 Ry     beta= 0.10
     Davidson diagonalization with overlap
     ethr =  2.90E-03,  avg # of iterations =  1.9

     negative rho (up, down):  5.200E-05 7.914E-03

     total cpu time spent up to now is      243.1 secs

     total energy              =   -3807.73692506 Ry
     estimated scf accuracy    <       7.35822576 Ry

     total magnetization       =    36.90 Bohr mag/cell
     absolute magnetization    =    40.61 Bohr mag/cell

     iteration # 12     ecut=    45.00 Ry     beta= 0.10
     Davidson diagonalization with overlap
     ethr =  2.90E-03,  avg # of iterations =  1.1

     negative rho (up, down):  1.320E-06 7.214E-03

     total cpu time spent up to now is      262.4 secs

     total energy              =   -3807.75513211 Ry
     estimated scf accuracy    <       2.96723069 Ry

     total magnetization       =    37.26 Bohr mag/cell
     absolute magnetization    =    39.78 Bohr mag/cell

     iteration # 13     ecut=    45.00 Ry     beta= 0.10
     Davidson diagonalization with overlap
     ethr =  1.23E-03,  avg # of iterations =  1.0

     negative rho (up, down):  0.000E+00 6.675E-03

     total cpu time spent up to now is      281.6 secs

     total energy              =   -3807.85480999 Ry
     estimated scf accuracy    <       3.46739986 Ry

     total magnetization       =    37.40 Bohr mag/cell
     absolute magnetization    =    40.34 Bohr mag/cell

     iteration # 14     ecut=    45.00 Ry     beta= 0.10
     Davidson diagonalization with overlap
     ethr =  1.23E-03,  avg # of iterations =  1.0

     negative rho (up, down):  0.000E+00 6.198E-03

     total cpu time spent up to now is      300.8 secs

     total energy              =   -3807.63069935 Ry
     estimated scf accuracy    <       5.87752999 Ry

     total magnetization       =    37.33 Bohr mag/cell
     absolute magnetization    =    41.40 Bohr mag/cell

     iteration # 15     ecut=    45.00 Ry     beta= 0.10
     Davidson diagonalization with overlap
     ethr =  1.23E-03,  avg # of iterations =  2.0

     negative rho (up, down):  0.000E+00 5.683E-03

     total cpu time spent up to now is      323.6 secs

     total energy              =   -3807.76325034 Ry
     estimated scf accuracy    <       4.68986697 Ry

     total magnetization       =    36.82 Bohr mag/cell
     absolute magnetization    =    41.22 Bohr mag/cell

     iteration # 16     ecut=    45.00 Ry     beta= 0.10
     Davidson diagonalization with overlap
     ethr =  1.23E-03,  avg # of iterations =  1.8

     negative rho (up, down):  0.000E+00 5.342E-03

     total cpu time spent up to now is      344.8 secs

     total energy              =   -3807.81167863 Ry
     estimated scf accuracy    <       0.13925256 Ry

     total magnetization       =    37.28 Bohr mag/cell
     absolute magnetization    =    39.50 Bohr mag/cell

     iteration # 17     ecut=    45.00 Ry     beta= 0.10
     Davidson diagonalization with overlap
     ethr =  5.75E-05,  avg # of iterations =  3.5

     negative rho (up, down):  0.000E+00 5.824E-03

     total cpu time spent up to now is      368.5 secs

     total energy              =   -3807.86423807 Ry
     estimated scf accuracy    <       0.24425604 Ry

     total magnetization       =    37.50 Bohr mag/cell
     absolute magnetization    =    39.93 Bohr mag/cell

     iteration # 18     ecut=    45.00 Ry     beta= 0.10
     Davidson diagonalization with overlap
     ethr =  5.75E-05,  avg # of iterations =  1.7

     negative rho (up, down):  0.000E+00 5.085E-03

     total cpu time spent up to now is      389.1 secs

     total energy              =   -3807.88778247 Ry
     estimated scf accuracy    <       0.21776083 Ry

     total magnetization       =    37.09 Bohr mag/cell
     absolute magnetization    =    39.53 Bohr mag/cell

     iteration # 19     ecut=    45.00 Ry     beta= 0.10
     Davidson diagonalization with overlap
     ethr =  5.75E-05,  avg # of iterations =  2.0

     negative rho (up, down):  0.000E+00 4.928E-03

     total cpu time spent up to now is      410.8 secs

     total energy              =   -3807.91649415 Ry
     estimated scf accuracy    <       0.14467075 Ry

     total magnetization       =    36.68 Bohr mag/cell
     absolute magnetization    =    39.11 Bohr mag/cell

     iteration # 20     ecut=    45.00 Ry     beta= 0.10
     Davidson diagonalization with overlap
     ethr =  5.75E-05,  avg # of iterations =  1.0

     negative rho (up, down):  0.000E+00 5.131E-03

     total cpu time spent up to now is      429.9 secs

     total energy              =   -3807.92909059 Ry
     estimated scf accuracy    <       0.10491619 Ry

     total magnetization       =    36.51 Bohr mag/cell
     absolute magnetization    =    38.86 Bohr mag/cell

     iteration # 21     ecut=    45.00 Ry     beta= 0.10
     Davidson diagonalization with overlap
     ethr =  4.34E-05,  avg # of iterations =  1.6

     negative rho (up, down):  0.000E+00 4.915E-03

     total cpu time spent up to now is      450.5 secs

     total energy              =   -3807.93912669 Ry
     estimated scf accuracy    <       0.01014924 Ry

     total magnetization       =    36.61 Bohr mag/cell
     absolute magnetization    =    38.90 Bohr mag/cell

     iteration # 22     ecut=    45.00 Ry     beta= 0.10
     Davidson diagonalization with overlap
     c_bands:  2 eigenvalues not converged
     ethr =  4.19E-06,  avg # of iterations =  9.7

     negative rho (up, down):  0.000E+00 5.006E-03

     total cpu time spent up to now is      481.2 secs

     total energy              =   -3807.95005243 Ry
     estimated scf accuracy    <       0.03359500 Ry

     total magnetization       =    36.60 Bohr mag/cell
     absolute magnetization    =    38.95 Bohr mag/cell

     iteration # 23     ecut=    45.00 Ry     beta= 0.10
     Davidson diagonalization with overlap
     ethr =  4.19E-06,  avg # of iterations =  1.7

     negative rho (up, down):  0.000E+00 4.995E-03

     total cpu time spent up to now is      502.2 secs

     total energy              =   -3807.95682515 Ry
     estimated scf accuracy    <       0.00300427 Ry

     total magnetization       =    36.55 Bohr mag/cell
     absolute magnetization    =    38.88 Bohr mag/cell

     iteration # 24     ecut=    45.00 Ry     beta= 0.10
     Davidson diagonalization with overlap
     ethr =  1.24E-06,  avg # of iterations =  4.0

     negative rho (up, down):  0.000E+00 4.928E-03

     total cpu time spent up to now is      526.8 secs

     total energy              =   -3807.96016994 Ry
     estimated scf accuracy    <       0.00392051 Ry

     total magnetization       =    36.59 Bohr mag/cell
     absolute magnetization    =    38.94 Bohr mag/cell

     iteration # 25     ecut=    45.00 Ry     beta= 0.10
     Davidson diagonalization with overlap
     ethr =  1.24E-06,  avg # of iterations =  1.1

     negative rho (up, down):  0.000E+00 4.892E-03

     total cpu time spent up to now is      546.1 secs

     total energy              =   -3807.96283874 Ry
     estimated scf accuracy    <       0.00216469 Ry

     total magnetization       =    36.58 Bohr mag/cell
     absolute magnetization    =    38.94 Bohr mag/cell

     iteration # 26     ecut=    45.00 Ry     beta= 0.10
     Davidson diagonalization with overlap
     ethr =  8.94E-07,  avg # of iterations =  1.7

     negative rho (up, down):  0.000E+00 4.916E-03

     total cpu time spent up to now is      567.0 secs

     total energy              =   -3807.96622547 Ry
     estimated scf accuracy    <       0.00012633 Ry

     total magnetization       =    36.56 Bohr mag/cell
     absolute magnetization    =    38.94 Bohr mag/cell

     iteration # 27     ecut=    45.00 Ry     beta= 0.10
     Davidson diagonalization with overlap
     ethr =  5.22E-08,  avg # of iterations =  4.3

     negative rho (up, down):  0.000E+00 4.955E-03

     total cpu time spent up to now is      593.2 secs

     total energy              =   -3807.96877908 Ry
     estimated scf accuracy    <       0.00010924 Ry

     total magnetization       =    36.56 Bohr mag/cell
     absolute magnetization    =    38.95 Bohr mag/cell

     iteration # 28     ecut=    45.00 Ry     beta= 0.10
     Davidson diagonalization with overlap
     ethr =  4.51E-08,  avg # of iterations =  2.0

     negative rho (up, down):  0.000E+00 4.946E-03

     total cpu time spent up to now is      616.1 secs

     total energy              =   -3807.97088571 Ry
     estimated scf accuracy    <       0.00004547 Ry

     total magnetization       =    36.55 Bohr mag/cell
     absolute magnetization    =    38.94 Bohr mag/cell

     iteration # 29     ecut=    45.00 Ry     beta= 0.10
     Davidson diagonalization with overlap
     ethr =  1.88E-08,  avg # of iterations =  2.0

     negative rho (up, down):  0.000E+00 4.950E-03

     total cpu time spent up to now is      638.9 secs

     total energy              =   -3807.97285995 Ry
     estimated scf accuracy    <       0.00008586 Ry

     total magnetization       =    36.55 Bohr mag/cell
     absolute magnetization    =    38.95 Bohr mag/cell

     iteration # 30     ecut=    45.00 Ry     beta= 0.10
     Davidson diagonalization with overlap
     ethr =  1.88E-08,  avg # of iterations =  2.0

     negative rho (up, down):  0.000E+00 4.953E-03

     total cpu time spent up to now is      661.1 secs

     total energy              =   -3807.97440657 Ry
     estimated scf accuracy    <       0.00001656 Ry

     total magnetization       =    36.55 Bohr mag/cell
     absolute magnetization    =    38.95 Bohr mag/cell

     iteration # 31     ecut=    45.00 Ry     beta= 0.10
     Davidson diagonalization with overlap
     ethr =  6.84E-09,  avg # of iterations =  2.3

     negative rho (up, down):  0.000E+00 4.934E-03

     total cpu time spent up to now is      684.1 secs

     total energy              =   -3807.97564962 Ry
     estimated scf accuracy    <       0.00000846 Ry

     total magnetization       =    36.55 Bohr mag/cell
     absolute magnetization    =    38.95 Bohr mag/cell

     iteration # 32     ecut=    45.00 Ry     beta= 0.10
     Davidson diagonalization with overlap
     ethr =  3.49E-09,  avg # of iterations =  3.0

     negative rho (up, down):  0.000E+00 4.931E-03

     total cpu time spent up to now is      709.4 secs

     total energy              =   -3807.97668150 Ry
     estimated scf accuracy    <       0.00000646 Ry

     total magnetization       =    36.55 Bohr mag/cell
     absolute magnetization    =    38.95 Bohr mag/cell

     iteration # 33     ecut=    45.00 Ry     beta= 0.10
     Davidson diagonalization with overlap
     ethr =  2.67E-09,  avg # of iterations =  2.0

     negative rho (up, down):  0.000E+00 4.925E-03

     total cpu time spent up to now is      732.6 secs

     total energy              =   -3807.97755687 Ry
     estimated scf accuracy    <       0.00001915 Ry

     total magnetization       =    36.55 Bohr mag/cell
     absolute magnetization    =    38.95 Bohr mag/cell

     iteration # 34     ecut=    45.00 Ry     beta= 0.10
     Davidson diagonalization with overlap
     ethr =  2.67E-09,  avg # of iterations =  2.0

     negative rho (up, down):  0.000E+00 4.920E-03

     total cpu time spent up to now is      755.9 secs

     total energy              =   -3807.97827515 Ry
     estimated scf accuracy    <       0.00001351 Ry

     total magnetization       =    36.56 Bohr mag/cell
     absolute magnetization    =    38.95 Bohr mag/cell

     iteration # 35     ecut=    45.00 Ry     beta= 0.10
     Davidson diagonalization with overlap
     ethr =  2.67E-09,  avg # of iterations =  2.2

     negative rho (up, down):  0.000E+00 4.918E-03

     total cpu time spent up to now is      780.1 secs

     total energy              =   -3807.97880132 Ry
     estimated scf accuracy    <       0.00001237 Ry

     total magnetization       =    36.55 Bohr mag/cell
     absolute magnetization    =    38.95 Bohr mag/cell

     iteration # 36     ecut=    45.00 Ry     beta= 0.10
     Davidson diagonalization with overlap
     ethr =  2.67E-09,  avg # of iterations =  2.0

     negative rho (up, down):  0.000E+00 4.916E-03

     total cpu time spent up to now is      804.0 secs

     total energy              =   -3807.97925517 Ry
     estimated scf accuracy    <       0.00000177 Ry

     total magnetization       =    36.55 Bohr mag/cell
     absolute magnetization    =    38.95 Bohr mag/cell

     iteration # 37     ecut=    45.00 Ry     beta= 0.10
     Davidson diagonalization with overlap
     ethr =  7.32E-10,  avg # of iterations =  2.9

     negative rho (up, down):  0.000E+00 4.914E-03

     total cpu time spent up to now is      829.4 secs

     total energy              =   -3807.97965035 Ry
     estimated scf accuracy    <       0.00000932 Ry

     total magnetization       =    36.55 Bohr mag/cell
     absolute magnetization    =    38.95 Bohr mag/cell

     iteration # 38     ecut=    45.00 Ry     beta= 0.10
     Davidson diagonalization with overlap
     ethr =  7.32E-10,  avg # of iterations =  3.2

     negative rho (up, down):  0.000E+00 4.913E-03

     total cpu time spent up to now is      855.8 secs

     total energy              =   -3807.97993329 Ry
     estimated scf accuracy    <       0.00001263 Ry

     total magnetization       =    36.55 Bohr mag/cell
     absolute magnetization    =    38.95 Bohr mag/cell

     iteration # 39     ecut=    45.00 Ry     beta= 0.10
     Davidson diagonalization with overlap
     ethr =  7.32E-10,  avg # of iterations =  2.2

     negative rho (up, down):  0.000E+00 4.912E-03

     total cpu time spent up to now is      880.0 secs

     total energy              =   -3807.98016894 Ry
     estimated scf accuracy    <       0.00000822 Ry

     total magnetization       =    36.55 Bohr mag/cell
     absolute magnetization    =    38.95 Bohr mag/cell

     iteration # 40     ecut=    45.00 Ry     beta= 0.10
     Davidson diagonalization with overlap
     ethr =  7.32E-10,  avg # of iterations =  2.0

     negative rho (up, down):  0.000E+00 4.904E-03

     Magnetic moment per site  (integrated on atomic sphere of radius R)
     atom   1 (R=0.179)  charge= 16.6314  magn=  0.9478
     atom   2 (R=0.179)  charge= 14.3869  magn=  2.6034
     atom   3 (R=0.179)  charge= 14.3869  magn=  2.6034
     atom   4 (R=0.179)  charge= 14.3811  magn=  2.6567
     atom   5 (R=0.179)  charge= 14.3869  magn=  2.6034
     atom   6 (R=0.179)  charge= 14.3811  magn=  2.6567
     atom   7 (R=0.179)  charge= 14.3811  magn=  2.6567
     atom   8 (R=0.179)  charge= 14.3845  magn=  2.6630
     atom   9 (R=0.179)  charge= 14.4190  magn=  2.5184
     atom  10 (R=0.179)  charge= 14.4190  magn=  2.5184
     atom  11 (R=0.179)  charge= 14.4110  magn=  2.6189
     atom  12 (R=0.179)  charge= 14.4190  magn=  2.5184
     atom  13 (R=0.179)  charge= 14.4110  magn=  2.6189
     atom  14 (R=0.179)  charge= 14.4110  magn=  2.6189
     atom  15 (R=0.179)  charge= 14.4159  magn=  2.6732

     total cpu time spent up to now is      903.7 secs

     End of self-consistent calculation

 ------ SPIN UP ------------


          k = 0.0000 0.0000 0.0000 (  6451 PWs)   bands (ev):

   -88.0355 -72.2410 -72.2174 -72.2174 -72.1992 -72.1933 -72.1933 -72.1791
   -72.1495 -72.0987 -72.0987 -72.0975 -71.9910 -71.9910 -71.9838 -48.2393
   -48.2393 -48.1293 -38.3844 -38.3638 -38.3638 -38.3206 -38.3206 -38.3177
   -38.2827 -38.2789 -38.2789 -38.2631 -38.2505 -38.2336 -38.2336 -38.2182
   -38.1725 -38.1722 -38.1722 -38.1584 -38.1584 -38.1209 -38.1209 -38.1166
   -38.1056 -38.1056 -38.1002 -38.0879 -38.0879 -38.0605 -38.0553 -38.0553
   -38.0502 -38.0502 -38.0460 -38.0439 -37.9657 -37.9657 -37.9369 -37.9369
   -37.8726 -37.8705 -37.8692 -37.8692   8.0500  11.3238  11.4024  11.4024
    11.4310  11.4688  11.4688  11.5203  11.5203  11.6458  11.7250  11.7250
    11.9940  11.9940  12.5047  12.7553  12.7608  12.7608  12.8031  12.8031
    12.8109  12.9284  12.9284  12.9620  13.1679  13.1679  13.2015  13.2222
    13.3180  13.3180  13.3608  13.7570  13.7570  13.8127  13.8127  13.8185
    14.0435  14.0435  14.0582  14.1557  14.1557  14.1655  14.1655  14.1845
    14.1868  14.5756  14.6139  14.6139  14.7137  14.8108  14.8108  14.8430
    14.8430  15.0076  15.0255  15.0392  15.0392  15.1015  15.1015  15.1346
    15.1346  15.1595  15.1595  15.1881  15.1881  15.2089  15.2218  15.5365
    15.6682  15.6682  16.0174  16.0174  16.0459  16.0459  16.1625  16.1625
    16.1747  16.1816  16.2886  16.2886  16.3260  16.5580  16.5580  16.5744
    16.6146

          k = 0.0000 0.0000 0.2500 (  6495 PWs)   bands (ev):

   -88.0356 -72.2388 -72.2206 -72.2176 -72.2002 -72.1934 -72.1913 -72.1795
   -72.1495 -72.0996 -72.0989 -72.0967 -71.9912 -71.9902 -71.9846 -48.2522
   -48.2478 -48.1400 -38.3848 -38.3663 -38.3644 -38.3225 -38.3215 -38.3163
   -38.2922 -38.2751 -38.2726 -38.2644 -38.2448 -38.2375 -38.2300 -38.2166
   -38.2000 -38.1950 -38.1768 -38.1721 -38.1432 -38.1419 -38.1325 -38.1176
   -38.1096 -38.1017 -38.0886 -38.0875 -38.0818 -38.0678 -38.0553 -38.0474
   -38.0429 -38.0334 -38.0283 -38.0276 -37.9793 -37.9745 -37.9364 -37.9337
   -37.8859 -37.8851 -37.8811 -37.8807   8.3459  10.5105  11.4389  11.4673
    11.5099  11.5586  11.5744  11.5901  11.6638  11.7418  11.7970  11.8027
    12.0595  12.1376  12.5010  12.6713  12.7031  12.7033  12.7227  12.7873
    12.8379  12.8468  12.9097  13.0617  13.0683  13.1575  13.2013  13.2258
    13.2731  13.5190  13.5378  13.6936  13.7176  13.7227  13.7729  13.7817
    13.8277  13.8536  13.9787  14.0796  14.0857  14.2472  14.3477  14.4149
    14.4317  14.5096  14.5104  14.5433  14.5751  14.6375  14.6986  14.8007
    14.8100  14.8796  14.9355  14.9732  15.0248  15.0375  15.0661  15.0677
    15.1145  15.1211  15.1519  15.1606  15.1740  15.1861  15.2105  15.2498
    15.3056  15.4826  15.5805  15.6055  15.6655  15.9158  16.0487  16.0730
    16.0958  16.1388  16.2692  16.2822  16.4436  16.6025  16.7894  16.8451
    17.0155

          k = 0.0000 0.0000-0.5000 (  6480 PWs)   bands (ev):

   -88.0356 -72.2354 -72.2248 -72.2176 -72.2007 -72.1934 -72.1895 -72.1802
   -72.1494 -72.1000 -72.0989 -72.0962 -71.9912 -71.9886 -71.9861 -48.2522
   -48.2431 -48.1371 -38.3798 -38.3596 -38.3518 -38.3212 -38.3102 -38.2956
   -38.2910 -38.2868 -38.2832 -38.2598 -38.2513 -38.2379 -38.2312 -38.2189
   -38.2175 -38.2095 -38.1955 -38.1782 -38.1506 -38.1475 -38.1363 -38.1174
   -38.1099 -38.0991 -38.0870 -38.0850 -38.0722 -38.0713 -38.0471 -38.0411
   -38.0387 -38.0187 -38.0134 -38.0108 -37.9892 -37.9754 -37.9299 -37.9200
   -37.8993 -37.8948 -37.8855 -37.8849   9.0515   9.4339  11.5353  11.5607
    11.6347  11.7053  11.7386  11.7644  11.7894  11.8945  11.9045  11.9720
    12.0096  12.1472  12.2809  12.3657  12.4749  12.6683  12.6784  12.7053
    12.8968  12.9061  13.1805  13.1853  13.2031  13.2368  13.3054  13.3869
    13.4208  13.4906  13.5347  13.5840  13.6373  13.6485  13.6879  13.7548
    13.7818  13.7908  13.8059  13.8986  13.9030  14.0571  14.2005  14.2320
    14.3068  14.3937  14.4240  14.4415  14.5565  14.5612  14.7014  14.7055
    14.7438  14.7510  14.7696  14.9546  14.9955  15.0140  15.0340  15.0763
    15.0835  15.1672  15.1674  15.1924  15.1941  15.1994  15.2182  15.2486
    15.4452  15.6117  15.6134  15.7073  15.7118  15.7416  15.7861  15.7962
    15.8265  16.2483  16.3706  16.4127  16.4982  16.6682  16.6944  16.7118
    16.7433

          k = 0.0000 0.2500 0.2500 (  6500 PWs)   bands (ev):

   -88.0356 -72.2363 -72.2224 -72.2188 -72.2012 -72.1925 -72.1900 -72.1803
   -72.1494 -72.0996 -72.0990 -72.0966 -71.9907 -71.9897 -71.9855 -48.2529
   -48.2471 -48.1435 -38.3821 -38.3621 -38.3568 -38.3162 -38.3133 -38.3088
   -38.2971 -38.2805 -38.2775 -38.2735 -38.2462 -38.2380 -38.2340 -38.2227
   -38.2086 -38.1972 -38.1773 -38.1679 -38.1462 -38.1379 -38.1356 -38.1317
   -38.1125 -38.1006 -38.0980 -38.0887 -38.0799 -38.0642 -38.0604 -38.0501
   -38.0390 -38.0313 -38.0274 -38.0068 -37.9796 -37.9772 -37.9289 -37.9191
   -37.8969 -37.8868 -37.8858 -37.8808   8.6431  10.6240  10.7636  11.4054
    11.6196  11.6807  11.6835  11.7228  11.7815  11.8555  11.8989  11.9303
    12.1971  12.2183  12.5405  12.5859  12.6100  12.6988  12.8030  12.8415
    12.8561  12.8874  12.9115  12.9417  13.0043  13.0145  13.1839  13.3217
    13.3346  13.3674  13.4653  13.6011  13.6094  13.6929  13.7072  13.7261
    13.7668  13.9237  13.9560  14.0603  14.1245  14.2329  14.3084  14.3241
    14.3918  14.4001  14.4146  14.4782  14.5122  14.5915  14.6017  14.6436
    14.6820  14.7816  14.7984  14.8435  14.9088  14.9966  15.0002  15.0265
    15.0595  15.0912  15.1226  15.1365  15.1764  15.2300  15.3256  15.3585
    15.3751  15.3871  15.4174  15.4756  15.4978  15.5393  15.5688  15.6877
    15.7741  15.8494  16.0802  16.5312  16.5593  17.5996  17.6769  17.8219
    17.9899

          k = 0.0000 0.2500-0.5000 (  6452 PWs)   bands (ev):

   -88.0355 -72.2332 -72.2248 -72.2195 -72.2021 -72.1922 -72.1886 -72.1808
   -72.1493 -72.1000 -72.0989 -72.0961 -71.9904 -71.9885 -71.9867 -48.2430
   -48.2367 -48.1296 -38.3753 -38.3532 -38.3456 -38.3205 -38.3090 -38.2985
   -38.2884 -38.2871 -38.2805 -38.2692 -38.2568 -38.2441 -38.2262 -38.2232
   -38.2162 -38.1979 -38.1764 -38.1696 -38.1474 -38.1391 -38.1326 -38.1207
   -38.1079 -38.0987 -38.0911 -38.0854 -38.0753 -38.0658 -38.0603 -38.0501
   -38.0435 -38.0289 -38.0237 -37.9938 -37.9850 -37.9774 -37.9189 -37.9099
   -37.8967 -37.8927 -37.8846 -37.8780   9.3254   9.6773  10.9892  11.2631
    11.7584  11.8749  11.9374  11.9628  11.9698  11.9990  12.0416  12.0778
    12.1227  12.2310  12.3502  12.3928  12.5478  12.7091  12.7618  12.7706
    12.8833  12.9474  13.0104  13.0556  13.1252  13.1522  13.2152  13.2463
    13.3513  13.4007  13.5027  13.5129  13.5352  13.6011  13.6353  13.6593
    13.6823  13.7205  13.7604  13.8428  13.9636  14.0041  14.0362  14.0834
    14.2294  14.2683  14.4321  14.5003  14.5421  14.6067  14.6839  14.7010
    14.7264  14.7568  14.7677  14.8085  14.8576  14.8937  14.9704  14.9890
    15.0380  15.0533  15.0951  15.1257  15.1501  15.2056  15.2241  15.2372
    15.2913  15.3128  15.3527  15.4069  15.4594  15.4669  15.4915  15.7041
    15.7885  15.9566  16.0827  17.0141  17.0780  17.1467  17.2409  18.7029
    18.8529

          k = 0.0000-0.5000-0.5000 (  6496 PWs)   bands (ev):

   -88.0356 -72.2294 -72.2263 -72.2219 -72.2032 -72.1919 -72.1874 -72.1817
   -72.1492 -72.1002 -72.0990 -72.0961 -71.9890 -71.9885 -71.9882 -48.2544
   -48.2464 -48.1400 -38.3733 -38.3503 -38.3361 -38.3230 -38.3106 -38.3063
   -38.2938 -38.2870 -38.2853 -38.2735 -38.2680 -38.2547 -38.2256 -38.2237
   -38.2147 -38.1882 -38.1778 -38.1489 -38.1412 -38.1404 -38.1356 -38.1153
   -38.1112 -38.0998 -38.0975 -38.0890 -38.0889 -38.0795 -38.0717 -38.0659
   -38.0548 -38.0333 -38.0303 -37.9862 -37.9858 -37.9818 -37.9137 -37.9018
   -37.8999 -37.8925 -37.8891 -37.8746  10.0141  10.1251  10.1325  10.7304
    12.0205  12.0368  12.0469  12.1178  12.1573  12.2202  12.2290  12.2577
    12.2943  12.3265  12.4912  12.5704  12.5767  12.6004  12.7125  12.7165
    12.8068  12.8103  12.8636  12.9406  12.9423  13.0291  13.0521  13.2557
    13.3286  13.3362  13.3730  13.4158  13.4801  13.5221  13.5285  13.6080
    13.6275  13.6283  13.6448  13.7231  13.7514  13.7734  13.9944  14.0479
    14.1187  14.2125  14.3473  14.4543  14.6196  14.6504  14.6636  14.7107
    14.7254  14.7452  14.7828  14.8219  14.8569  14.8658  14.9052  14.9157
    14.9191  14.9231  14.9258  15.0229  15.0598  15.0753  15.0787  15.0931
    15.1607  15.2022  15.2717  15.2795  15.3366  15.3733  15.3878  15.7338
    15.8372  16.0450  16.1886  17.7728  17.8618  17.9797  18.1086  18.2568
    18.2688

          k = 0.2500 0.2500 0.2500 (  6493 PWs)   bands (ev):

   -88.0356 -72.2335 -72.2222 -72.2222 -72.2020 -72.1901 -72.1901 -72.1815
   -72.1494 -72.0989 -72.0989 -72.0973 -71.9896 -71.9896 -71.9865 -48.2498
   -48.2498 -48.1394 -38.3790 -38.3516 -38.3516 -38.3072 -38.3072 -38.3022
   -38.3008 -38.2879 -38.2774 -38.2774 -38.2499 -38.2377 -38.2377 -38.2244
   -38.2244 -38.1932 -38.1713 -38.1617 -38.1617 -38.1306 -38.1306 -38.1290
   -38.1248 -38.1036 -38.1036 -38.0825 -38.0825 -38.0699 -38.0586 -38.0586
   -38.0280 -38.0280 -38.0279 -38.0066 -37.9796 -37.9796 -37.9152 -37.9152
   -37.9018 -37.8877 -37.8842 -37.8842   8.9334  10.8405  10.8405  11.0135
    11.5963  11.5963  11.6818  11.8861  11.8861  11.9748  12.0485  12.0485
    12.3642  12.3642  12.5438  12.5884  12.6049  12.7496  12.7496  12.8550
    12.8550  12.8861  12.9437  12.9459  12.9459  13.1220  13.1220  13.2025
    13.3120  13.3120  13.3491  13.4940  13.4940  13.5693  13.5693  13.6422
    13.6422  13.7455  13.7863  13.9382  13.9382  14.0451  14.1925  14.1925
    14.2909  14.2909  14.3561  14.5370  14.5897  14.5897  14.5969  14.7652
    14.7652  14.7754  14.8257  14.8511  14.8511  14.9344  14.9389  14.9389
    15.0716  15.0716  15.0853  15.1177  15.1177  15.1671  15.1909  15.1909
    15.2845  15.3303  15.3303  15.5742  15.5756  15.5756  15.7042  15.7042
    15.7269  15.7269  15.8445  16.5789  16.5789  16.6624  18.5227  18.5227
    18.7553

          k = 0.2500 0.2500-0.5000 (  6456 PWs)   bands (ev):

   -88.0355 -72.2310 -72.2242 -72.2220 -72.2037 -72.1901 -72.1888 -72.1817
   -72.1492 -72.0996 -72.0989 -72.0966 -71.9896 -71.9887 -71.9874 -48.2443
   -48.2386 -48.1295 -38.3716 -38.3473 -38.3409 -38.3147 -38.3071 -38.2992
   -38.2878 -38.2867 -38.2814 -38.2712 -38.2575 -38.2410 -38.2409 -38.2199
   -38.2184 -38.1821 -38.1754 -38.1687 -38.1495 -38.1456 -38.1273 -38.1239
   -38.1154 -38.1086 -38.1067 -38.0843 -38.0802 -38.0708 -38.0569 -38.0459
   -38.0339 -38.0264 -38.0207 -38.0009 -37.9887 -37.9768 -37.9166 -37.9108
   -37.8982 -37.8925 -37.8826 -37.8790   9.6021   9.9283  11.2267  11.2283
    11.3851  11.6020  12.0844  12.1294  12.1298  12.1595  12.1763  12.1946
    12.2108  12.3389  12.3768  12.4733  12.6454  12.7389  12.7797  12.8587
    12.9093  12.9376  12.9410  13.0108  13.0691  13.1098  13.1470  13.1540
    13.2228  13.2715  13.4023  13.4037  13.4358  13.4634  13.4702  13.4842
    13.5139  13.5263  13.5282  13.5666  13.7697  13.8993  13.9074  13.9767
    13.9994  14.2193  14.3852  14.4095  14.6210  14.6635  14.7217  14.7271
    14.7725  14.7872  14.8055  14.8358  14.8876  14.9126  14.9784  14.9969
    15.0323  15.0887  15.0990  15.1249  15.1629  15.1758  15.1787  15.2106
    15.2354  15.3351  15.3882  15.3963  15.5066  15.6812  15.7217  15.7643
    15.8300  15.8837  15.9151  15.9998  16.0288  17.6667  17.9953  19.2158
    19.2211

          k = 0.2500-0.5000-0.5000 (  6472 PWs)   bands (ev):

   -88.0355 -72.2279 -72.2261 -72.2221 -72.2058 -72.1899 -72.1876 -72.1825
   -72.1490 -72.0997 -72.0989 -72.0965 -71.9892 -71.9883 -71.9881 -48.2446
   -48.2440 -48.1344 -38.3663 -38.3403 -38.3312 -38.3157 -38.3076 -38.3002
   -38.2940 -38.2823 -38.2784 -38.2688 -38.2607 -38.2533 -38.2360 -38.2191
   -38.2124 -38.1834 -38.1697 -38.1554 -38.1542 -38.1438 -38.1424 -38.1351
   -38.1339 -38.1178 -38.1155 -38.0830 -38.0804 -38.0600 -38.0538 -38.0483
   -38.0310 -38.0235 -38.0227 -37.9958 -37.9885 -37.9847 -37.9145 -37.9084
   -37.9069 -37.8941 -37.8857 -37.8810  10.2744  10.3925  10.4040  10.9301
    11.6984  11.8796  11.9027  12.2203  12.2388  12.2519  12.2773  12.4847
    12.5268  12.5449  12.5575  12.6238  12.6320  12.7106  12.7320  12.7576
    12.7889  12.8874  12.8993  12.9103  12.9370  12.9974  13.0123  13.1275
    13.1642  13.1797  13.1859  13.1949  13.2525  13.2902  13.3280  13.3459
    13.3778  13.3917  13.4688  13.4954  13.5325  13.5784  13.6960  13.7114
    13.8793  14.2503  14.2648  14.2878  14.7117  14.7347  14.8075  14.8673
    14.8951  14.9051  14.9477  14.9533  14.9702  14.9923  15.0225  15.0501
    15.0640  15.0713  15.0777  15.0840  15.1111  15.1475  15.1592  15.2149
    15.2224  15.2452  15.3015  15.3703  15.4087  15.4349  15.4432  15.6423
    15.7074  15.8077  15.9208  16.6178  16.7444  16.7566  17.0031  20.1393
    20.2873

          k =-0.5000-0.5000-0.5000 (  6488 PWs)   bands (ev):

   -88.0355 -72.2259 -72.2259 -72.2228 -72.2082 -72.1878 -72.1878 -72.1836
   -72.1488 -72.0989 -72.0989 -72.0973 -71.9893 -71.9880 -71.9880 -48.2463
   -48.2463 -48.1365 -38.3610 -38.3249 -38.3249 -38.3101 -38.3034 -38.3034
   -38.3003 -38.2683 -38.2683 -38.2661 -38.2523 -38.2516 -38.2516 -38.2134
   -38.2134 -38.1880 -38.1602 -38.1602 -38.1592 -38.1529 -38.1523 -38.1523
   -38.1451 -38.1302 -38.1302 -38.0811 -38.0811 -38.0473 -38.0323 -38.0323
   -38.0211 -38.0163 -38.0163 -38.0062 -37.9961 -37.9961 -37.9133 -37.9133
   -37.9128 -37.9008 -37.8895 -37.8895  10.8818  11.0042  11.0365  11.0365
    11.2085  11.2287  11.2287  12.2227  12.6218  12.6218  12.6393  12.6393
    12.6459  12.6538  12.6538  12.6655  12.7235  12.7235  12.7524  12.8299
    12.8782  12.8782  12.9211  12.9211  12.9998  12.9998  13.0101  13.0298
    13.0369  13.0369  13.0723  13.0723  13.0750  13.0812  13.0945  13.0945
    13.1389  13.1491  13.1491  13.1758  13.1758  13.1846  13.3039  13.7341
    13.7341  14.1945  14.2326  14.2326  14.7514  14.7514  14.9265  14.9343
    14.9343  14.9644  14.9644  14.9697  15.0135  15.0135  15.0295  15.0526
    15.0526  15.0731  15.1775  15.1775  15.3255  15.3278  15.3278  15.3708
    15.4035  15.4035  15.4433  15.4433  15.4693  15.4898  15.4898  15.7416
    15.7416  15.7844  15.9434  16.0297  16.0551  16.0551  16.0639  22.5400
    22.5402

          k =-0.2500 0.0000 0.2500 (  6500 PWs)   bands (ev):

   -88.0356 -72.2368 -72.2205 -72.2196 -72.2017 -72.1924 -72.1905 -72.1799
   -72.1494 -72.1001 -72.0989 -72.0962 -71.9905 -71.9901 -71.9853 -48.2540
   -48.2506 -48.1388 -38.3802 -38.3604 -38.3589 -38.3231 -38.3188 -38.3052
   -38.2974 -38.2786 -38.2742 -38.2683 -38.2514 -38.2383 -38.2344 -38.2234
   -38.2119 -38.2055 -38.1790 -38.1533 -38.1479 -38.1392 -38.1272 -38.1162
   -38.1101 -38.1089 -38.0931 -38.0879 -38.0760 -38.0660 -38.0643 -38.0528
   -38.0452 -38.0370 -38.0274 -38.0087 -37.9837 -37.9781 -37.9323 -37.9237
   -37.8925 -37.8881 -37.8825 -37.8742   8.6432  10.5936  10.7977  11.3990
    11.6220  11.6789  11.6989  11.7461  11.7490  11.8659  11.8874  11.9277
    12.1830  12.2190  12.5427  12.5931  12.6033  12.7010  12.7831  12.8479
    12.8565  12.8863  12.9201  12.9674  13.0061  13.0183  13.1804  13.3313
    13.3396  13.3857  13.4796  13.5296  13.6660  13.6753  13.7102  13.7224
    13.7549  13.9031  13.9450  14.0716  14.1026  14.2093  14.3286  14.3622
    14.3921  14.4055  14.4402  14.4652  14.5059  14.5516  14.5798  14.6525
    14.6778  14.7842  14.8412  14.9001  14.9177  14.9499  15.0161  15.0595
    15.0913  15.0952  15.1192  15.1413  15.1522  15.1938  15.2935  15.3395
    15.3568  15.3997  15.4404  15.4923  15.5141  15.5253  15.5969  15.6061
    15.7358  15.7657  16.2136  16.5348  16.5720  17.5024  17.6772  17.8301
    18.0694

          k = 0.2500-0.2500 0.2500 (  6493 PWs)   bands (ev):

   -88.0356 -72.2348 -72.2222 -72.2195 -72.2035 -72.1909 -72.1901 -72.1806
   -72.1493 -72.1001 -72.0989 -72.0962 -71.9902 -71.9896 -71.9860 -48.2497
   -48.2494 -48.1398 -38.3755 -38.3543 -38.3502 -38.3200 -38.3117 -38.2985
   -38.2958 -38.2810 -38.2782 -38.2770 -38.2549 -38.2392 -38.2362 -38.2289
   -38.2160 -38.1886 -38.1805 -38.1578 -38.1548 -38.1370 -38.1330 -38.1286
   -38.1277 -38.1042 -38.0989 -38.0823 -38.0797 -38.0634 -38.0567 -38.0550
   -38.0312 -38.0301 -38.0277 -38.0075 -37.9851 -37.9781 -37.9274 -37.9141
   -37.8962 -37.8926 -37.8811 -37.8793   8.9337  10.7975  10.8411  11.0613
    11.5598  11.5866  11.7408  11.8712  11.8994  11.9987  12.0323  12.0464
    12.3433  12.3604  12.5387  12.5657  12.6107  12.7587  12.7672  12.8494
    12.8643  12.8896  12.9233  12.9721  12.9729  13.1082  13.1135  13.2112
    13.3026  13.3263  13.3437  13.4661  13.5209  13.5628  13.5682  13.6683
    13.6774  13.7334  13.7614  13.9351  13.9795  14.0473  14.1527  14.1861
    14.2459  14.2658  14.3953  14.4385  14.4935  14.5585  14.6096  14.7253
    14.7679  14.8057  14.8370  14.8909  14.9275  14.9668  14.9822  15.0081
    15.0265  15.0530  15.0763  15.1023  15.1070  15.1294  15.1602  15.1921
    15.3478  15.3839  15.3935  15.5171  15.5638  15.5714  15.6028  15.6950
    15.7486  15.8494  15.8504  16.5596  16.5606  16.6767  18.4696  18.5241
    18.8133

          k = 0.2500-0.2500-0.5000 (  6456 PWs)   bands (ev):

   -88.0355 -72.2317 -72.2251 -72.2194 -72.2047 -72.1909 -72.1884 -72.1814
   -72.1491 -72.1001 -72.0989 -72.0961 -71.9901 -71.9884 -71.9871 -48.2405
   -48.2399 -48.1321 -38.3706 -38.3464 -38.3414 -38.3202 -38.3067 -38.2958
   -38.2895 -38.2871 -38.2814 -38.2680 -38.2555 -38.2445 -38.2330 -38.2213
   -38.2192 -38.1843 -38.1721 -38.1692 -38.1530 -38.1456 -38.1359 -38.1301
   -38.1237 -38.1093 -38.0954 -38.0825 -38.0805 -38.0685 -38.0527 -38.0481
   -38.0312 -38.0277 -38.0118 -37.9979 -37.9859 -37.9829 -37.9167 -37.9100
   -37.9005 -37.8926 -37.8845 -37.8809   9.6015   9.9292  11.1890  11.2652
    11.3612  11.6388  12.0705  12.1313  12.1408  12.1496  12.1899  12.1968
    12.2067  12.3360  12.3809  12.4742  12.6454  12.7549  12.7628  12.8576
    12.8951  12.9179  12.9475  13.0370  13.0401  13.1287  13.1413  13.1603
    13.2663  13.2873  13.4037  13.4131  13.4317  13.4430  13.4623  13.4875
    13.5032  13.5193  13.5287  13.5371  13.7727  13.8859  13.9226  13.9761
    13.9878  14.2208  14.3791  14.4052  14.5958  14.6461  14.6902  14.7477
    14.7586  14.7865  14.7941  14.8378  14.8696  14.9197  14.9664  15.0207
    15.0281  15.0612  15.0848  15.1555  15.1636  15.1781  15.2002  15.2273
    15.2461  15.3425  15.4047  15.4467  15.5375  15.5893  15.7357  15.8289
    15.8457  15.8758  15.9282  15.9934  16.0277  17.6430  17.9731  19.1565
    19.2388

 ------ SPIN DOWN ----------


          k = 0.0000 0.0000 0.0000 (  6451 PWs)   bands (ev):

   -86.7067 -68.9536 -68.9329 -68.9329 -68.8774 -68.8656 -68.8656 -68.8517
   -68.8488 -68.8488 -68.8427 -68.8372 -68.8372 -68.8208 -68.7957 -46.9023
   -46.9023 -46.8281 -35.2128 -35.2021 -35.2021 -35.1760 -35.1585 -35.1585
   -35.0846 -35.0846 -35.0815 -35.0245 -35.0223 -35.0223 -35.0092 -35.0092
   -35.0006 -34.9985 -34.9985 -34.9975 -34.9796 -34.9796 -34.9677 -34.9624
   -34.9624 -34.9592 -34.9446 -34.9439 -34.9319 -34.9319 -34.9276 -34.9276
   -34.9169 -34.9169 -34.8939 -34.8238 -34.8122 -34.8122 -34.7991 -34.7991
   -34.7960 -34.7890 -34.7890 -34.7833   8.1925  12.1572  12.2025  12.2025
    12.3245  12.3245  12.4255  12.8997  12.8997  12.9659  12.9889  12.9889
    13.6821  13.6821  13.7386  14.3070  14.3070  14.4202  14.7278  14.7278
    14.7458  14.8849  14.8849  14.9732  15.1796  15.1796  15.3049  15.3873
    15.3873  15.6717  15.7102  15.8919  15.9743  15.9743  16.3298  16.3298
    16.3861  16.3861  16.4386  16.5160  16.5160  16.5189  16.5302  16.5973
    16.5973  16.6559  16.6559  16.7198  17.0198  17.0198  17.1227  17.2396
    17.2396  17.3101  17.3101  17.3249  17.4872  17.4872  17.5881  17.9643
    18.0233  18.0233  18.0686  18.0995  18.0995  18.2379  18.2379  18.3679
    18.3679  18.3849  18.3868  18.3880  18.3880  18.4563  18.5882  18.5882
    18.7823  18.7823  18.8364  18.8364  18.8898  18.8898  18.9220  18.9826
    19.0780

          k = 0.0000 0.0000 0.2500 (  6495 PWs)   bands (ev):

   -86.7068 -68.9508 -68.9354 -68.9329 -68.8770 -68.8687 -68.8654 -68.8537
   -68.8505 -68.8491 -68.8412 -68.8373 -68.8317 -68.8196 -68.7979 -46.9150
   -46.9107 -46.8385 -35.2064 -35.1965 -35.1955 -35.1687 -35.1586 -35.1568
   -35.0947 -35.0946 -35.0819 -35.0661 -35.0660 -35.0523 -35.0420 -35.0244
   -35.0210 -35.0049 -34.9836 -34.9809 -34.9776 -34.9687 -34.9579 -34.9533
   -34.9406 -34.9357 -34.9318 -34.9302 -34.9184 -34.9118 -34.9114 -34.9066
   -34.9054 -34.8968 -34.8855 -34.8335 -34.8269 -34.8227 -34.8174 -34.8131
   -34.8112 -34.8070 -34.8070 -34.8025   8.4927  10.7778  12.3530  12.3826
    12.4812  12.4936  12.9084  12.9255  12.9642  12.9731  13.1622  13.2945
    13.7184  13.8107  13.8906  14.2138  14.3236  14.3917  14.5404  14.7844
    14.7919  14.8654  14.9041  15.0075  15.0453  15.0702  15.3205  15.3278
    15.4014  15.4939  15.6196  15.8081  15.8473  15.8929  15.9975  16.0604
    16.1036  16.1520  16.1534  16.1977  16.2574  16.3213  16.3669  16.5063
    16.5429  16.6373  16.7550  16.7656  16.8806  16.9123  17.0691  17.1932
    17.2094  17.2836  17.3739  17.6382  17.6895  17.7331  17.8234  17.8965
    17.9107  17.9745  18.0483  18.0831  18.1523  18.1684  18.2901  18.3563
    18.3643  18.3810  18.4062  18.4934  18.5330  18.6179  18.6353  18.6769
    18.7292  18.7527  18.8369  18.8500  18.8677  18.9046  18.9439  18.9475
    18.9802

          k = 0.0000 0.0000-0.5000 (  6480 PWs)   bands (ev):

   -86.7068 -68.9462 -68.9398 -68.9329 -68.8762 -68.8722 -68.8652 -68.8548
   -68.8507 -68.8493 -68.8410 -68.8373 -68.8280 -68.8166 -68.8011 -46.9150
   -46.9063 -46.8356 -35.1672 -35.1636 -35.1590 -35.1557 -35.1542 -35.1442
   -35.1436 -35.1300 -35.1111 -35.0965 -35.0903 -35.0717 -35.0517 -35.0340
   -35.0270 -35.0114 -34.9960 -34.9869 -34.9800 -34.9691 -34.9629 -34.9553
   -34.9374 -34.9185 -34.9095 -34.9079 -34.9013 -34.8986 -34.8904 -34.8777
   -34.8713 -34.8710 -34.8606 -34.8446 -34.8336 -34.8325 -34.8316 -34.8276
   -34.8267 -34.8227 -34.8160 -34.8154   9.2117   9.6075  12.5473  12.6179
    12.6486  12.7321  12.8506  12.8522  12.9322  13.1803  13.4902  13.5781
    13.7075  13.9598  13.9784  14.0649  14.0785  14.3157  14.4598  14.5949
    14.7957  14.8219  14.9430  15.0590  15.1626  15.2891  15.3948  15.4322
    15.4368  15.4637  15.4804  15.4960  15.5034  15.5125  15.5528  15.7329
    15.8416  15.8591  15.9444  15.9467  16.0485  16.1710  16.2517  16.3305
    16.3588  16.4774  16.6534  16.9475  17.0784  17.2655  17.3604  17.4254
    17.4896  17.4911  17.5995  17.6271  17.6695  17.7985  17.8008  17.8342
    17.8799  17.9372  18.0263  18.2205  18.2336  18.2982  18.3249  18.3472
    18.3708  18.3784  18.3888  18.4037  18.5040  18.5496  18.5639  18.6016
    18.6540  18.7101  18.7677  18.7965  18.8426  18.9361  19.0085  19.0245
    19.0421

          k = 0.0000 0.2500 0.2500 (  6500 PWs)   bands (ev):

   -86.7068 -68.9480 -68.9368 -68.9340 -68.8768 -68.8682 -68.8675 -68.8553
   -68.8518 -68.8513 -68.8393 -68.8348 -68.8279 -68.8199 -68.7997 -46.9156
   -46.9100 -46.8420 -35.1987 -35.1824 -35.1737 -35.1567 -35.1519 -35.1499
   -35.1207 -35.1153 -35.1053 -35.0843 -35.0752 -35.0505 -35.0436 -35.0233
   -35.0057 -35.0035 -35.0006 -34.9828 -34.9808 -34.9735 -34.9671 -34.9562
   -34.9532 -34.9507 -34.9381 -34.9306 -34.9109 -34.9083 -34.8945 -34.8930
   -34.8844 -34.8631 -34.8607 -34.8509 -34.8328 -34.8272 -34.8264 -34.8189
   -34.8180 -34.8114 -34.8027 -34.7988   8.7933  10.9461  11.0784  12.4055
    12.6058  12.6239  13.0447  13.1353  13.1806  13.2320  13.3641  13.4820
    13.8194  13.8713  14.0605  14.1783  14.3372  14.3557  14.5377  14.6795
    14.7892  14.8191  14.8872  14.9286  15.0208  15.0411  15.1298  15.2274
    15.3737  15.4624  15.5023  15.6379  15.6804  15.7390  15.7772  15.8444
    15.8904  15.9210  16.0146  16.1273  16.1351  16.2128  16.2271  16.3548
    16.4751  16.6061  16.6600  16.8292  16.9353  17.1125  17.1175  17.1574
    17.3146  17.3337  17.4091  17.5159  17.6253  17.7343  17.8400  17.9757
    17.9904  18.0566  18.0906  18.1040  18.1381  18.2027  18.2142  18.2748
    18.2766  18.3480  18.3836  18.3862  18.4198  18.4233  18.4747  18.5482
    18.5717  18.7126  18.8636  18.9972  19.0357  19.5272  19.6298  19.7148
    19.7264

          k = 0.0000 0.2500-0.5000 (  6452 PWs)   bands (ev):

   -86.7068 -68.9443 -68.9394 -68.9345 -68.8756 -68.8719 -68.8671 -68.8565
   -68.8526 -68.8520 -68.8387 -68.8329 -68.8253 -68.8184 -68.8021 -46.9060
   -46.8999 -46.8284 -35.1710 -35.1651 -35.1583 -35.1552 -35.1519 -35.1447
   -35.1392 -35.1200 -35.1070 -35.0811 -35.0784 -35.0566 -35.0459 -35.0359
   -35.0258 -35.0016 -34.9977 -34.9875 -34.9782 -34.9756 -34.9722 -34.9617
   -34.9414 -34.9398 -34.9345 -34.9233 -34.9163 -34.9045 -34.8933 -34.8796
   -34.8660 -34.8531 -34.8452 -34.8369 -34.8351 -34.8296 -34.8274 -34.8250
   -34.8153 -34.8121 -34.8078 -34.8044   9.4966   9.8688  11.4788  11.8667
    12.8090  12.9071  13.0793  13.2129  13.4707  13.5262  13.5895  13.6654
    13.7959  13.9686  14.0196  14.0742  14.1899  14.3747  14.4690  14.6223
    14.7111  14.8230  14.8658  14.9831  15.0340  15.0814  15.1991  15.2294
    15.2790  15.2931  15.4247  15.4536  15.4839  15.5221  15.5845  15.6453
    15.7154  15.7687  15.8355  15.8807  15.9985  16.0490  16.0979  16.3747
    16.4057  16.4732  16.8051  16.8965  16.9886  17.1138  17.2526  17.4199
    17.4381  17.4951  17.5414  17.5631  17.5933  17.6682  17.7368  17.8377
    17.8842  17.9319  18.0153  18.0615  18.1390  18.2203  18.2347  18.2687
    18.3060  18.3362  18.3744  18.3825  18.4155  18.4202  18.4416  18.5570
    18.6476  18.7457  18.8561  19.2784  19.3099  19.3407  19.3998  20.2363
    20.3800

          k = 0.0000-0.5000-0.5000 (  6496 PWs)   bands (ev):

   -86.7068 -68.9404 -68.9398 -68.9372 -68.8746 -68.8707 -68.8702 -68.8591
   -68.8534 -68.8528 -68.8382 -68.8269 -68.8234 -68.8213 -68.8034 -46.9173
   -46.9093 -46.8385 -35.1728 -35.1606 -35.1591 -35.1579 -35.1571 -35.1503
   -35.1401 -35.1178 -35.1075 -35.0718 -35.0602 -35.0519 -35.0221 -35.0195
   -35.0158 -35.0044 -34.9992 -34.9949 -34.9898 -34.9854 -34.9829 -34.9766
   -34.9682 -34.9667 -34.9503 -34.9497 -34.9428 -34.9090 -34.8815 -34.8761
   -34.8632 -34.8504 -34.8444 -34.8371 -34.8353 -34.8310 -34.8298 -34.8260
   -34.8081 -34.8057 -34.8022 -34.7971  10.2239  10.3673  10.4143  11.0461
    13.2323  13.2430  13.3056  13.4508  13.4904  13.5823  13.6963  13.7582
    13.8845  13.9590  14.0313  14.1355  14.3899  14.4169  14.4201  14.4814
    14.6617  14.6790  14.7393  14.7984  14.8411  14.9945  15.0281  15.0926
    15.2302  15.2515  15.2999  15.3549  15.3676  15.4357  15.5392  15.5770
    15.5903  15.6982  15.7754  15.9683  15.9783  15.9853  16.0131  16.3537
    16.3905  16.6022  16.6195  16.8427  16.9017  16.9744  17.1630  17.2528
    17.2743  17.4865  17.6281  17.6354  17.7174  17.7406  17.7927  17.7986
    17.8233  17.8608  17.9162  17.9668  18.0331  18.1086  18.1321  18.1934
    18.2098  18.2537  18.2897  18.2954  18.3337  18.3891  18.4184  18.6045
    18.7546  18.8119  18.9862  19.7420  19.8743  20.0923  20.1619  20.1803
    20.2531

          k = 0.2500 0.2500 0.2500 (  6493 PWs)   bands (ev):

   -86.7068 -68.9452 -68.9365 -68.9365 -68.8765 -68.8688 -68.8688 -68.8567
   -68.8516 -68.8516 -68.8417 -68.8277 -68.8277 -68.8209 -68.8010 -46.9127
   -46.9127 -46.8380 -35.1874 -35.1603 -35.1603 -35.1463 -35.1460 -35.1460
   -35.1297 -35.1264 -35.1264 -35.0705 -35.0705 -35.0526 -35.0526 -35.0394
   -35.0340 -35.0156 -34.9951 -34.9951 -34.9791 -34.9791 -34.9719 -34.9425
   -34.9425 -34.9390 -34.9253 -34.9253 -34.9157 -34.9155 -34.9155 -34.8981
   -34.8762 -34.8514 -34.8465 -34.8465 -34.8287 -34.8287 -34.8255 -34.8187
   -34.8187 -34.8083 -34.8083 -34.8066   9.0873  11.1930  11.1930  11.3744
    12.6016  12.6016  12.7881  13.4111  13.4111  13.4933  13.6312  13.6312
    14.0220  14.0220  14.0735  14.1646  14.3726  14.3726  14.4005  14.7367
    14.7637  14.7637  14.8481  14.8481  15.0497  15.0510  15.0513  15.0513
    15.3656  15.3656  15.4551  15.4858  15.4858  15.6235  15.6235  15.6388
    15.6772  15.7483  15.7483  16.0147  16.0147  16.0601  16.0601  16.2198
    16.4971  16.6658  16.6658  16.9639  17.1397  17.1397  17.2441  17.2441
    17.3107  17.3209  17.5175  17.5732  17.5732  17.8124  17.8359  17.8359
    17.9318  18.0429  18.0429  18.1524  18.2031  18.2031  18.2503  18.2503
    18.2962  18.2962  18.3167  18.3620  18.3620  18.4865  18.4865  18.5467
    18.6007  18.6007  18.6449  18.9917  18.9917  19.0282  20.2505  20.2505
    20.4029

          k = 0.2500 0.2500-0.5000 (  6456 PWs)   bands (ev):

   -86.7068 -68.9425 -68.9386 -68.9363 -68.8754 -68.8725 -68.8694 -68.8568
   -68.8520 -68.8514 -68.8415 -68.8275 -68.8249 -68.8197 -68.8027 -46.9073
   -46.9017 -46.8283 -35.1669 -35.1635 -35.1609 -35.1515 -35.1404 -35.1335
   -35.1212 -35.1185 -35.1076 -35.0775 -35.0746 -35.0583 -35.0494 -35.0337
   -35.0255 -35.0216 -35.0172 -35.0031 -34.9897 -34.9853 -34.9829 -34.9497
   -34.9484 -34.9434 -34.9270 -34.9157 -34.9051 -34.9022 -34.8881 -34.8822
   -34.8746 -34.8519 -34.8512 -34.8414 -34.8284 -34.8277 -34.8217 -34.8216
   -34.8160 -34.8150 -34.8095 -34.8057   9.7810  10.1321  11.7284  11.7300
    11.9741  12.2487  13.1368  13.5701  13.6090  13.6969  13.7325  13.7771
    13.9470  14.0165  14.1176  14.2403  14.3179  14.3808  14.5411  14.6344
    14.6609  14.8361  14.8578  14.9006  14.9789  15.0104  15.0819  15.1048
    15.1484  15.1948  15.3546  15.3716  15.3857  15.4840  15.5051  15.5606
    15.5636  15.6497  15.6864  15.7950  15.8737  15.9071  15.9205  16.1678
    16.3936  16.5374  16.7228  16.8322  16.9959  17.0791  17.3481  17.3837
    17.4745  17.5980  17.6663  17.7005  17.7257  17.7466  17.8353  17.9250
    17.9564  17.9805  18.0692  18.1365  18.1384  18.1765  18.2313  18.2754
    18.2883  18.3106  18.3314  18.3580  18.3713  18.4226  18.4607  18.4652
    18.5661  18.5734  18.6084  18.6855  18.7163  19.7795  20.0749  20.7914
    20.8246

          k = 0.2500-0.5000-0.5000 (  6472 PWs)   bands (ev):

   -86.7068 -68.9399 -68.9396 -68.9368 -68.8752 -68.8729 -68.8723 -68.8564
   -68.8525 -68.8511 -68.8417 -68.8255 -68.8226 -68.8214 -68.8036 -46.9076
   -46.9070 -46.8332 -35.1590 -35.1515 -35.1488 -35.1415 -35.1408 -35.1338
   -35.1225 -35.1106 -35.1019 -35.0659 -35.0628 -35.0579 -35.0482 -35.0461
   -35.0448 -35.0347 -35.0342 -35.0320 -35.0047 -34.9910 -34.9866 -34.9447
   -34.9383 -34.9368 -34.9185 -34.9179 -34.9139 -34.8976 -34.8815 -34.8813
   -34.8656 -34.8534 -34.8483 -34.8449 -34.8336 -34.8301 -34.8287 -34.8248
   -34.8168 -34.8148 -34.8136 -34.8095  10.4919  10.6406  10.6907  11.2525
    12.2859  12.4967  12.5246  13.2418  13.8048  13.9388  13.9915  14.0213
    14.0763  14.1768  14.2351  14.3452  14.4371  14.4689  14.5004  14.5885
    14.6192  14.7387  14.7835  14.8355  14.8775  14.9699  15.0034  15.0653
    15.1451  15.1935  15.2516  15.2545  15.2983  15.3630  15.3769  15.4369
    15.4537  15.6352  15.6358  15.7115  15.7209  15.7822  15.7880  15.8470
    16.0446  16.5948  16.6507  16.6950  17.0959  17.1364  17.4668  17.4784
    17.6376  17.7662  17.7928  17.8018  17.8827  17.8896  17.8980  17.9346
    17.9358  17.9740  17.9789  18.0384  18.0657  18.1179  18.1646  18.1670
    18.1808  18.2083  18.2790  18.2847  18.3033  18.3219  18.3676  18.4800
    18.5297  18.5918  18.6419  19.0481  19.1423  19.1488  19.3292  21.6590
    21.8209

          k =-0.5000-0.5000-0.5000 (  6488 PWs)   bands (ev):

   -86.7068 -68.9395 -68.9395 -68.9363 -68.8763 -68.8742 -68.8742 -68.8546
   -68.8496 -68.8496 -68.8464 -68.8248 -68.8214 -68.8214 -68.8038 -46.9093
   -46.9093 -46.8352 -35.1356 -35.1356 -35.1245 -35.1197 -35.1197 -35.1161
   -35.1049 -35.0946 -35.0946 -35.0834 -35.0834 -35.0767 -35.0689 -35.0689
   -35.0667 -35.0607 -35.0607 -35.0561 -35.0149 -34.9869 -34.9869 -34.9374
   -34.9374 -34.9189 -34.8889 -34.8858 -34.8858 -34.8850 -34.8850 -34.8757
   -34.8680 -34.8547 -34.8547 -34.8487 -34.8396 -34.8396 -34.8368 -34.8324
   -34.8324 -34.8323 -34.8220 -34.8220  11.1268  11.2955  11.3501  11.3501
    11.5385  11.5932  11.5932  12.7513  14.0114  14.0114  14.1652  14.1652
    14.2415  14.5498  14.5541  14.5541  14.5703  14.5703  14.6389  14.6702
    14.6702  14.8273  14.8603  14.8603  14.9138  15.0848  15.0848  15.1366
    15.1640  15.1640  15.1863  15.2010  15.2011  15.2011  15.2341  15.2341
    15.2566  15.2604  15.2604  15.3056  15.4565  15.4565  15.4989  15.7932
    15.7932  16.5344  16.6679  16.6679  17.2268  17.2268  17.5854  17.5854
    17.8156  18.0522  18.0698  18.0698  18.0754  18.0754  18.0983  18.0983
    18.1146  18.1146  18.1183  18.1215  18.1340  18.1366  18.1366  18.1592
    18.1592  18.1603  18.1777  18.1777  18.2017  18.2962  18.2962  18.3583
    18.3583  18.3960  18.4960  18.6052  18.6052  18.6307  18.6817  23.6298
    23.6891

          k =-0.2500 0.0000 0.2500 (  6500 PWs)   bands (ev):

   -86.7068 -68.9487 -68.9354 -68.9345 -68.8763 -68.8701 -68.8666 -68.8547
   -68.8525 -68.8509 -68.8391 -68.8337 -68.8300 -68.8190 -68.7997 -46.9168
   -46.9135 -46.8374 -35.1946 -35.1889 -35.1866 -35.1655 -35.1480 -35.1471
   -35.1180 -35.1139 -35.0885 -35.0697 -35.0645 -35.0528 -35.0409 -35.0242
   -35.0163 -35.0031 -34.9913 -34.9883 -34.9828 -34.9797 -34.9746 -34.9704
   -34.9593 -34.9465 -34.9313 -34.9220 -34.9187 -34.9131 -34.9000 -34.8952
   -34.8851 -34.8613 -34.8579 -34.8458 -34.8334 -34.8270 -34.8259 -34.8188
   -34.8136 -34.8074 -34.8059 -34.7982   8.7949  10.8716  11.1585  12.3986
    12.5993  12.6193  13.0692  13.1589  13.1638  13.3020  13.3314  13.4446
    13.7980  13.8731  13.9885  14.1699  14.3125  14.4493  14.5219  14.7278
    14.7578  14.8008  14.8764  14.9107  15.0012  15.1119  15.1695  15.3226
    15.3827  15.4480  15.5039  15.5930  15.6341  15.7177  15.7683  15.8147
    15.9157  15.9300  16.0065  16.1104  16.1404  16.1997  16.3135  16.4113
    16.4723  16.4858  16.7014  16.8255  16.8946  16.9505  17.1237  17.2325
    17.2755  17.3405  17.4149  17.6163  17.6997  17.7867  17.8776  17.9258
    17.9418  18.0050  18.0800  18.1119  18.1340  18.2069  18.2098  18.2571
    18.2747  18.3137  18.3637  18.3859  18.4320  18.4734  18.4921  18.5276
    18.5565  18.6299  19.0013  19.0130  19.0490  19.4237  19.5198  19.7279
    19.8504

          k = 0.2500-0.2500 0.2500 (  6493 PWs)   bands (ev):

   -86.7068 -68.9466 -68.9365 -68.9347 -68.8761 -68.8708 -68.8688 -68.8548
   -68.8531 -68.8516 -68.8395 -68.8309 -68.8277 -68.8190 -68.8012 -46.9126
   -46.9122 -46.8384 -35.1808 -35.1751 -35.1732 -35.1546 -35.1457 -35.1423
   -35.1301 -35.1144 -35.0895 -35.0730 -35.0630 -35.0591 -35.0437 -35.0386
   -35.0313 -35.0258 -35.0168 -34.9987 -34.9976 -34.9808 -34.9748 -34.9416
   -34.9409 -34.9316 -34.9236 -34.9206 -34.9152 -34.9097 -34.9067 -34.8999
   -34.8785 -34.8574 -34.8470 -34.8452 -34.8328 -34.8268 -34.8215 -34.8174
   -34.8142 -34.8108 -34.8098 -34.8082   9.0905  11.0941  11.1939  11.4831
    12.5518  12.5889  12.8453  13.4392  13.4922  13.5292  13.6087  13.6162
    13.9222  13.9358  14.0359  14.2189  14.2927  14.3490  14.5100  14.6090
    14.7824  14.8211  14.8343  14.9252  14.9598  15.0456  15.1511  15.2732
    15.3111  15.3246  15.3919  15.4603  15.5199  15.5600  15.6096  15.7156
    15.7558  15.7979  15.8459  15.8797  16.0045  16.0234  16.0708  16.2416
    16.5039  16.5186  16.6430  16.8319  16.8797  17.1103  17.1628  17.4161
    17.4450  17.4982  17.5365  17.5932  17.6939  17.7796  17.8498  17.9377
    17.9653  17.9773  18.0705  18.0955  18.1064  18.2006  18.2429  18.2670
    18.2715  18.3009  18.3352  18.3755  18.4436  18.4620  18.4770  18.5184
    18.5773  18.6053  18.6302  18.9698  18.9759  19.0385  20.2057  20.2571
    20.4527

          k = 0.2500-0.2500-0.5000 (  6456 PWs)   bands (ev):

   -86.7068 -68.9430 -68.9394 -68.9347 -68.8754 -68.8727 -68.8700 -68.8553
   -68.8535 -68.8514 -68.8400 -68.8303 -68.8234 -68.8193 -68.8029 -46.9036
   -46.9030 -46.8308 -35.1646 -35.1581 -35.1564 -35.1530 -35.1497 -35.1303
   -35.1289 -35.1095 -35.0936 -35.0780 -35.0757 -35.0692 -35.0558 -35.0482
   -35.0316 -35.0199 -35.0160 -34.9989 -34.9955 -34.9892 -34.9818 -34.9536
   -34.9405 -34.9328 -34.9161 -34.9057 -34.9046 -34.8995 -34.8979 -34.8781
   -34.8763 -34.8521 -34.8506 -34.8417 -34.8326 -34.8311 -34.8228 -34.8212
   -34.8164 -34.8131 -34.8117 -34.8072   9.7817  10.1346  11.6524  11.7995
    11.9302  12.3036  13.1307  13.5545  13.6373  13.7294  13.8127  13.8643
    13.8882  13.9343  14.1021  14.1417  14.3170  14.3995  14.4624  14.5859
    14.7348  14.8262  14.8893  14.9185  14.9638  15.0030  15.0812  15.1458
    15.1712  15.2476  15.3280  15.4176  15.4204  15.4670  15.4768  15.5174
    15.6083  15.6631  15.6981  15.7889  15.8269  15.8534  15.9285  16.2267
    16.3225  16.5773  16.7006  16.8076  16.9495  16.9903  17.3752  17.4567
    17.4898  17.5099  17.6454  17.7274  17.7902  17.8063  17.8550  17.9267
    17.9756  18.0137  18.0287  18.0918  18.1519  18.2028  18.2240  18.2723
    18.3214  18.3273  18.3449  18.3473  18.3944  18.4324  18.4451  18.5277
    18.5658  18.5803  18.5923  18.6096  18.6947  19.7669  20.0467  20.7514
    20.8291

     the Fermi energy is    16.2200 ev

!    total energy              =   -3807.98126404 Ry
     estimated scf accuracy    <       0.00000085 Ry
     smearing contrib. (-TS)   =       0.01637175 Ry
     internal energy E=F+TS    =   -3807.99763579 Ry

     The total energy is F=E-TS. E is the sum of the following terms:
     one-electron contribution =   -1986.17705752 Ry
     hartree contribution      =    1119.25883482 Ry
     xc contribution           =    -422.91899794 Ry
     ewald contribution        =   -2518.16041514 Ry

     total magnetization       =    36.55 Bohr mag/cell
     absolute magnetization    =    38.95 Bohr mag/cell

     convergence has been achieved in  40 iterations

     negative rho (up, down):  0.000E+00 4.904E-03

     Forces acting on atoms (cartesian axes, Ry/au):

     atom    1 type  2   force =     0.00676949    0.00676949    0.00676949
     atom    2 type  1   force =    -0.01326973    0.01030118    0.01030118
     atom    3 type  1   force =     0.01030118   -0.01326973    0.01030118
     atom    4 type  1   force =    -0.00862373   -0.00862373    0.01173152
     atom    5 type  1   force =     0.01030118    0.01030118   -0.01326973
     atom    6 type  1   force =    -0.00862373    0.01173152   -0.00862373
     atom    7 type  1   force =     0.01173152   -0.00862373   -0.00862373
     atom    8 type  1   force =    -0.01560606   -0.01560606   -0.01560606
     atom    9 type  1   force =     0.00651618   -0.00179934   -0.00179934
     atom   10 type  1   force =    -0.00179934    0.00651618   -0.00179934
     atom   11 type  1   force =    -0.00187045   -0.00187045    0.00135269
     atom   12 type  1   force =    -0.00179934   -0.00179934    0.00651618
     atom   13 type  1   force =    -0.00187045    0.00135269   -0.00187045
     atom   14 type  1   force =     0.00135269   -0.00187045   -0.00187045
     atom   15 type  1   force =     0.00649056    0.00649056    0.00649056

     Total force =     0.056496     Total SCF correction =     0.004216

     BFGS Geometry Optimization
     Energy error            =      3.2E-03 Ry
     Gradient error          =      1.6E-02 Ry/Bohr

     number of scf cycles    =   1
     number of bfgs steps    =   0

     energy             new  =   -3807.9812640408 Ry

     new trust radius        =       0.0270304845 bohr
     new conv_thr            =       0.0000010000 Ry


ATOMIC_POSITIONS (crystal)
Ni               0.0006249526        0.0006249526        0.0006249526
Fe               0.4987749508        0.0009509953        0.0009509953
Fe               0.0009509953        0.4987749508        0.0009509953
Fe               0.4992038658        0.4992038658        0.0010830432
Fe               0.0009509953        0.0009509953        0.4987749508
Fe               0.4992038658        0.0010830432        0.4992038658
Fe               0.0010830432        0.4992038658        0.4992038658
Fe               0.4985592635        0.4985592635        0.4985592635
Fe               0.7506015676        0.2498338869        0.2498338869
Fe               0.2498338869        0.7506015676        0.2498338869
Fe               0.7498273220        0.7498273220        0.2501248792
Fe               0.2498338869        0.2498338869        0.7506015676
Fe               0.7498273220        0.2501248792        0.7498273220
Fe               0.2501248792        0.7498273220        0.7498273220
Fe               0.7505992028        0.7505992028        0.7505992028



     Writing config-only to output data dir ./outdir/fe15_ni1_end.save/ :
     XML data file
     NEW-OLD atomic charge density approx. for the potential

     Check: negative core charge=   -0.000004

     negative rho (up, down):  0.000E+00 4.779E-03
     Generating pointlists ...

     total cpu time spent up to now is      908.1 secs

     per-process dynamical memory:   164.1 Mb

     Self-consistent Calculation

     iteration #  1     ecut=    45.00 Ry     beta= 0.10
     Davidson diagonalization with overlap
     ethr =  1.00E-06,  avg # of iterations =  8.1

     negative rho (up, down):  0.000E+00 4.719E-03

     total cpu time spent up to now is      965.8 secs

     total energy              =   -3807.98425716 Ry
     estimated scf accuracy    <       0.00763844 Ry

     total magnetization       =    36.58 Bohr mag/cell
     absolute magnetization    =    38.98 Bohr mag/cell

     iteration #  2     ecut=    45.00 Ry     beta= 0.10
     Davidson diagonalization with overlap
     ethr =  3.16E-06,  avg # of iterations =  2.0

     negative rho (up, down):  0.000E+00 4.720E-03

     total cpu time spent up to now is      987.4 secs

     total energy              =   -3807.98387039 Ry
     estimated scf accuracy    <       0.03693412 Ry

     total magnetization       =    36.57 Bohr mag/cell
     absolute magnetization    =    39.03 Bohr mag/cell

     iteration #  3     ecut=    45.00 Ry     beta= 0.10
     Davidson diagonalization with overlap
     ethr =  3.16E-06,  avg # of iterations =  2.0

     negative rho (up, down):  0.000E+00 4.681E-03

     total cpu time spent up to now is     1008.8 secs

     total energy              =   -3807.98354856 Ry
     estimated scf accuracy    <       0.01021931 Ry

     total magnetization       =    36.57 Bohr mag/cell
     absolute magnetization    =    38.98 Bohr mag/cell

     iteration #  4     ecut=    45.00 Ry     beta= 0.10
     Davidson diagonalization with overlap
     ethr =  3.16E-06,  avg # of iterations =  1.7

     negative rho (up, down):  0.000E+00 4.590E-03

     total cpu time spent up to now is     1029.6 secs

     total energy              =   -3807.98374887 Ry
     estimated scf accuracy    <       0.00132511 Ry

     total magnetization       =    36.56 Bohr mag/cell
     absolute magnetization    =    38.97 Bohr mag/cell

     iteration #  5     ecut=    45.00 Ry     beta= 0.10
     Davidson diagonalization with overlap
     ethr =  5.48E-07,  avg # of iterations =  1.1

     negative rho (up, down):  0.000E+00 4.373E-03

     total cpu time spent up to now is     1048.6 secs

     total energy              =   -3807.98374833 Ry
     estimated scf accuracy    <       0.00038313 Ry

     total magnetization       =    36.55 Bohr mag/cell
     absolute magnetization    =    38.96 Bohr mag/cell

     iteration #  6     ecut=    45.00 Ry     beta= 0.10
     Davidson diagonalization with overlap
     ethr =  1.58E-07,  avg # of iterations =  2.2

     negative rho (up, down):  0.000E+00 4.333E-03

     total cpu time spent up to now is     1072.7 secs

     total energy              =   -3807.98389993 Ry
     estimated scf accuracy    <       0.00063887 Ry

     total magnetization       =    36.56 Bohr mag/cell
     absolute magnetization    =    38.96 Bohr mag/cell

     iteration #  7     ecut=    45.00 Ry     beta= 0.10
     Davidson diagonalization with overlap
     ethr =  1.58E-07,  avg # of iterations =  2.0

     negative rho (up, down):  0.000E+00 4.342E-03

     total cpu time spent up to now is     1094.5 secs

     total energy              =   -3807.98396880 Ry
     estimated scf accuracy    <       0.00000997 Ry

     total magnetization       =    36.55 Bohr mag/cell
     absolute magnetization    =    38.96 Bohr mag/cell

     iteration #  8     ecut=    45.00 Ry     beta= 0.10
     Davidson diagonalization with overlap
     ethr =  4.12E-09,  avg # of iterations =  4.5

     negative rho (up, down):  0.000E+00 4.344E-03

     total cpu time spent up to now is     1120.3 secs

     total energy              =   -3807.98401907 Ry
     estimated scf accuracy    <       0.00001072 Ry

     total magnetization       =    36.55 Bohr mag/cell
     absolute magnetization    =    38.96 Bohr mag/cell

     iteration #  9     ecut=    45.00 Ry     beta= 0.10
     Davidson diagonalization with overlap
     ethr =  4.12E-09,  avg # of iterations =  2.0

     negative rho (up, down):  0.000E+00 4.338E-03

     total cpu time spent up to now is     1142.5 secs

     total energy              =   -3807.98405288 Ry
     estimated scf accuracy    <       0.00000767 Ry

     total magnetization       =    36.55 Bohr mag/cell
     absolute magnetization    =    38.96 Bohr mag/cell

     iteration # 10     ecut=    45.00 Ry     beta= 0.10
     Davidson diagonalization with overlap
     ethr =  3.17E-09,  avg # of iterations =  1.4

     negative rho (up, down):  0.000E+00 4.341E-03

     total cpu time spent up to now is     1162.3 secs

     total energy              =   -3807.98407654 Ry
     estimated scf accuracy    <       0.00000937 Ry

     total magnetization       =    36.55 Bohr mag/cell
     absolute magnetization    =    38.96 Bohr mag/cell

     iteration # 11     ecut=    45.00 Ry     beta= 0.10
     Davidson diagonalization with overlap
     ethr =  3.17E-09,  avg # of iterations =  2.0

     negative rho (up, down):  0.000E+00 4.340E-03

     total cpu time spent up to now is     1184.5 secs

     total energy              =   -3807.98410477 Ry
     estimated scf accuracy    <       0.00001344 Ry

     total magnetization       =    36.55 Bohr mag/cell
     absolute magnetization    =    38.96 Bohr mag/cell

     iteration # 12     ecut=    45.00 Ry     beta= 0.10
     Davidson diagonalization with overlap
     ethr =  3.17E-09,  avg # of iterations =  1.5

     negative rho (up, down):  0.000E+00 4.329E-03

     total cpu time spent up to now is     1204.6 secs

     total energy              =   -3807.98412300 Ry
     estimated scf accuracy    <       0.00000425 Ry

     total magnetization       =    36.55 Bohr mag/cell
     absolute magnetization    =    38.96 Bohr mag/cell

     iteration # 13     ecut=    45.00 Ry     beta= 0.10
     Davidson diagonalization with overlap
     ethr =  1.76E-09,  avg # of iterations =  2.0

     negative rho (up, down):  0.000E+00 4.325E-03

     total cpu time spent up to now is     1227.5 secs

     total energy              =   -3807.98413544 Ry
     estimated scf accuracy    <       0.00000131 Ry

     total magnetization       =    36.55 Bohr mag/cell
     absolute magnetization    =    38.96 Bohr mag/cell

     iteration # 14     ecut=    45.00 Ry     beta= 0.10
     Davidson diagonalization with overlap
     ethr =  5.42E-10,  avg # of iterations =  2.2

     negative rho (up, down):  0.000E+00 4.323E-03

     total cpu time spent up to now is     1251.1 secs

     total energy              =   -3807.98414847 Ry
     estimated scf accuracy    <       0.00000356 Ry

     total magnetization       =    36.55 Bohr mag/cell
     absolute magnetization    =    38.96 Bohr mag/cell

     iteration # 15     ecut=    45.00 Ry     beta= 0.10
     Davidson diagonalization with overlap
     ethr =  5.42E-10,  avg # of iterations =  1.5

     negative rho (up, down):  0.000E+00 4.315E-03

     total cpu time spent up to now is     1271.4 secs

     total energy              =   -3807.98415462 Ry
     estimated scf accuracy    <       0.00000236 Ry

     total magnetization       =    36.55 Bohr mag/cell
     absolute magnetization    =    38.96 Bohr mag/cell

     iteration # 16     ecut=    45.00 Ry     beta= 0.10
     Davidson diagonalization with overlap
     ethr =  5.42E-10,  avg # of iterations =  3.8

     negative rho (up, down):  0.000E+00 4.313E-03

     total cpu time spent up to now is     1300.6 secs

     total energy              =   -3807.98415879 Ry
     estimated scf accuracy    <       0.00007535 Ry

     total magnetization       =    36.55 Bohr mag/cell
     absolute magnetization    =    38.96 Bohr mag/cell

     iteration # 17     ecut=    45.00 Ry     beta= 0.10
     Davidson diagonalization with overlap
     ethr =  5.42E-10,  avg # of iterations =  2.1

     negative rho (up, down):  0.000E+00 4.310E-03

     total cpu time spent up to now is     1323.4 secs

     total energy              =   -3807.98416093 Ry
     estimated scf accuracy    <       0.00002814 Ry

     total magnetization       =    36.55 Bohr mag/cell
     absolute magnetization    =    38.96 Bohr mag/cell

     iteration # 18     ecut=    45.00 Ry     beta= 0.10
     Davidson diagonalization with overlap
     ethr =  5.42E-10,  avg # of iterations =  2.1

     negative rho (up, down):  0.000E+00 4.311E-03

     total cpu time spent up to now is     1346.4 secs

     total energy              =   -3807.98416576 Ry
     estimated scf accuracy    <       0.00000348 Ry

     total magnetization       =    36.55 Bohr mag/cell
     absolute magnetization    =    38.96 Bohr mag/cell

     iteration # 19     ecut=    45.00 Ry     beta= 0.10
     Davidson diagonalization with overlap
     ethr =  5.42E-10,  avg # of iterations =  3.2

     negative rho (up, down):  0.000E+00 4.309E-03

     total cpu time spent up to now is     1371.7 secs

     total energy              =   -3807.98417480 Ry
     estimated scf accuracy    <       0.00002668 Ry

     total magnetization       =    36.55 Bohr mag/cell
     absolute magnetization    =    38.96 Bohr mag/cell

     iteration # 20     ecut=    45.00 Ry     beta= 0.10
     Davidson diagonalization with overlap
     ethr =  5.42E-10,  avg # of iterations =  2.0

     negative rho (up, down):  0.000E+00 4.308E-03

     total cpu time spent up to now is     1394.5 secs

     total energy              =   -3807.98418038 Ry
     estimated scf accuracy    <       0.00000981 Ry

     total magnetization       =    36.55 Bohr mag/cell
     absolute magnetization    =    38.96 Bohr mag/cell

     iteration # 21     ecut=    45.00 Ry     beta= 0.10
     Davidson diagonalization with overlap
     ethr =  5.42E-10,  avg # of iterations =  2.0

     negative rho (up, down):  0.000E+00 4.306E-03

     total cpu time spent up to now is     1416.7 secs

     total energy              =   -3807.98418365 Ry
     estimated scf accuracy    <       0.00000159 Ry

     total magnetization       =    36.55 Bohr mag/cell
     absolute magnetization    =    38.96 Bohr mag/cell

     iteration # 22     ecut=    45.00 Ry     beta= 0.10
     Davidson diagonalization with overlap
     ethr =  5.42E-10,  avg # of iterations =  2.0

     negative rho (up, down):  0.000E+00 4.307E-03

     total cpu time spent up to now is     1439.6 secs

     total energy              =   -3807.98418560 Ry
     estimated scf accuracy    <       0.00000116 Ry

     total magnetization       =    36.55 Bohr mag/cell
     absolute magnetization    =    38.96 Bohr mag/cell

     iteration # 23     ecut=    45.00 Ry     beta= 0.10
     Davidson diagonalization with overlap
     ethr =  4.78E-10,  avg # of iterations =  2.0

     negative rho (up, down):  0.000E+00 4.301E-03

     Magnetic moment per site  (integrated on atomic sphere of radius R)
     atom   1 (R=0.179)  charge= 16.6319  magn=  0.9483
     atom   2 (R=0.179)  charge= 14.3857  magn=  2.6031
     atom   3 (R=0.179)  charge= 14.3857  magn=  2.6031
     atom   4 (R=0.179)  charge= 14.3792  magn=  2.6571
     atom   5 (R=0.179)  charge= 14.3857  magn=  2.6031
     atom   6 (R=0.179)  charge= 14.3792  magn=  2.6571
     atom   7 (R=0.179)  charge= 14.3792  magn=  2.6571
     atom   8 (R=0.179)  charge= 14.3802  magn=  2.6681
     atom   9 (R=0.179)  charge= 14.4232  magn=  2.5076
     atom  10 (R=0.179)  charge= 14.4232  magn=  2.5076
     atom  11 (R=0.179)  charge= 14.4069  magn=  2.6240
     atom  12 (R=0.179)  charge= 14.4232  magn=  2.5076
     atom  13 (R=0.179)  charge= 14.4069  magn=  2.6240
     atom  14 (R=0.179)  charge= 14.4069  magn=  2.6240
     atom  15 (R=0.179)  charge= 14.4032  magn=  2.6910

     total cpu time spent up to now is     1461.6 secs

     End of self-consistent calculation

 ------ SPIN UP ------------


          k = 0.0000 0.0000 0.0000 (  6451 PWs)   bands (ev):

   -88.0407 -72.2472 -72.2227 -72.2227 -72.2205 -72.1933 -72.1933 -72.1823
   -72.1566 -72.0985 -72.0985 -72.0978 -71.9800 -71.9800 -71.9731 -48.2440
   -48.2440 -48.1353 -38.3942 -38.3662 -38.3662 -38.3227 -38.3227 -38.3190
   -38.2832 -38.2810 -38.2810 -38.2719 -38.2539 -38.2348 -38.2348 -38.2295
   -38.1781 -38.1781 -38.1775 -38.1587 -38.1587 -38.1207 -38.1207 -38.1161
   -38.1116 -38.1116 -38.1022 -38.0976 -38.0976 -38.0601 -38.0561 -38.0561
   -38.0504 -38.0504 -38.0462 -38.0352 -37.9610 -37.9610 -37.9279 -37.9279
   -37.8644 -37.8628 -37.8614 -37.8614   8.0541  11.3347  11.4061  11.4061
    11.4336  11.4747  11.4747  11.5241  11.5241  11.6495  11.7280  11.7280
    12.0065  12.0065  12.4932  12.7510  12.7576  12.7576  12.8044  12.8044
    12.8141  12.9321  12.9321  12.9656  13.1678  13.1678  13.2034  13.2238
    13.3338  13.3338  13.3763  13.7380  13.7380  13.8129  13.8129  13.8168
    14.0418  14.0418  14.0566  14.1576  14.1576  14.1651  14.1651  14.1814
    14.1916  14.5741  14.6079  14.6079  14.7142  14.8138  14.8138  14.8425
    14.8425  15.0005  15.0282  15.0374  15.0374  15.0992  15.0992  15.1377
    15.1377  15.1599  15.1599  15.1875  15.1875  15.2092  15.2245  15.5188
    15.6523  15.6523  16.0151  16.0151  16.0443  16.0443  16.1581  16.1581
    16.1723  16.1819  16.2910  16.2910  16.3289  16.5607  16.5607  16.5726
    16.6181

          k = 0.0000 0.0000 0.2500 (  6495 PWs)   bands (ev):

   -88.0408 -72.2452 -72.2256 -72.2228 -72.2208 -72.1934 -72.1920 -72.1828
   -72.1566 -72.0994 -72.0987 -72.0970 -71.9801 -71.9792 -71.9738 -48.2570
   -48.2526 -48.1460 -38.3947 -38.3687 -38.3667 -38.3248 -38.3237 -38.3178
   -38.2938 -38.2792 -38.2773 -38.2689 -38.2480 -38.2392 -38.2315 -38.2252
   -38.2034 -38.1978 -38.1823 -38.1723 -38.1465 -38.1414 -38.1320 -38.1212
   -38.1200 -38.1076 -38.0959 -38.0912 -38.0875 -38.0657 -38.0561 -38.0473
   -38.0441 -38.0323 -38.0291 -38.0245 -37.9742 -37.9694 -37.9270 -37.9243
   -37.8774 -37.8767 -37.8726 -37.8721   8.3505  10.5136  11.4482  11.4743
    11.5129  11.5611  11.5779  11.5948  11.6675  11.7467  11.8007  11.8140
    12.0702  12.1427  12.4926  12.6668  12.7003  12.7033  12.7237  12.7860
    12.8422  12.8525  12.9128  13.0690  13.0752  13.1570  13.2019  13.2405
    13.2698  13.5266  13.5438  13.6889  13.7197  13.7204  13.7741  13.7786
    13.8248  13.8517  13.9702  14.0818  14.0865  14.2511  14.3430  14.4090
    14.4244  14.5041  14.5133  14.5505  14.5754  14.6345  14.6881  14.7886
    14.8060  14.8760  14.9364  14.9723  15.0258  15.0384  15.0719  15.0730
    15.1174  15.1188  15.1460  15.1599  15.1731  15.1843  15.2131  15.2526
    15.3107  15.4829  15.5658  15.5918  15.6505  15.9135  16.0487  16.0742
    16.0957  16.1414  16.2696  16.2804  16.4423  16.6057  16.7858  16.8449
    17.0126

          k = 0.0000 0.0000-0.5000 (  6480 PWs)   bands (ev):

   -88.0408 -72.2423 -72.2294 -72.2228 -72.2208 -72.1934 -72.1904 -72.1837
   -72.1566 -72.0998 -72.0987 -72.0965 -71.9801 -71.9776 -71.9752 -48.2570
   -48.2479 -48.1431 -38.3898 -38.3619 -38.3542 -38.3242 -38.3128 -38.2971
   -38.2931 -38.2890 -38.2886 -38.2657 -38.2535 -38.2398 -38.2328 -38.2206
   -38.2189 -38.2178 -38.1947 -38.1843 -38.1501 -38.1481 -38.1387 -38.1223
   -38.1213 -38.1037 -38.0939 -38.0887 -38.0781 -38.0699 -38.0484 -38.0412
   -38.0402 -38.0154 -38.0150 -38.0109 -37.9837 -37.9706 -37.9205 -37.9107
   -37.8904 -37.8860 -37.8763 -37.8755   9.0624   9.4300  11.5468  11.5731
    11.6352  11.7060  11.7461  11.7655  11.7953  11.9002  11.9017  11.9835
    12.0173  12.1572  12.2926  12.3598  12.4634  12.6640  12.6740  12.6965
    12.9075  12.9162  13.1913  13.1927  13.2148  13.2445  13.2964  13.3910
    13.4242  13.4917  13.5385  13.5891  13.6298  13.6474  13.6803  13.7503
    13.7815  13.7863  13.8041  13.9029  13.9082  14.0661  14.1980  14.2277
    14.3029  14.3921  14.4186  14.4341  14.5524  14.5543  14.6952  14.6996
    14.7340  14.7511  14.7691  14.9517  15.0002  15.0228  15.0443  15.0771
    15.0832  15.1664  15.1669  15.1857  15.1872  15.1981  15.2157  15.2481
    15.4437  15.5934  15.6199  15.6984  15.7057  15.7389  15.7771  15.7972
    15.8357  16.2471  16.3766  16.4158  16.5027  16.6600  16.6963  16.7031
    16.7390

          k = 0.0000 0.2500 0.2500 (  6500 PWs)   bands (ev):

   -88.0409 -72.2430 -72.2270 -72.2242 -72.2211 -72.1930 -72.1906 -72.1839
   -72.1566 -72.0994 -72.0988 -72.0969 -71.9796 -71.9787 -71.9747 -48.2577
   -48.2518 -48.1496 -38.3922 -38.3645 -38.3592 -38.3190 -38.3158 -38.3107
   -38.2987 -38.2872 -38.2792 -38.2775 -38.2499 -38.2390 -38.2365 -38.2249
   -38.2158 -38.2010 -38.1823 -38.1688 -38.1477 -38.1379 -38.1350 -38.1327
   -38.1194 -38.1122 -38.1022 -38.0983 -38.0822 -38.0640 -38.0597 -38.0485
   -38.0403 -38.0327 -38.0286 -38.0043 -37.9746 -37.9722 -37.9195 -37.9107
   -37.8879 -37.8781 -37.8770 -37.8721   8.6481  10.6273  10.7688  11.4075
    11.6295  11.6827  11.6867  11.7248  11.7855  11.8663  11.9054  11.9430
    12.2023  12.2227  12.5350  12.5822  12.6099  12.6990  12.8013  12.8408
    12.8618  12.8917  12.9140  12.9472  13.0073  13.0161  13.1896  13.3170
    13.3419  13.3737  13.4710  13.5984  13.6073  13.6916  13.7074  13.7372
    13.7690  13.9219  13.9522  14.0595  14.1231  14.2330  14.3002  14.3194
    14.3828  14.3984  14.4158  14.4660  14.5133  14.5928  14.6034  14.6461
    14.6741  14.7754  14.7978  14.8423  14.9093  14.9933  15.0016  15.0287
    15.0590  15.0898  15.1191  15.1410  15.1762  15.2350  15.3157  15.3526
    15.3733  15.3836  15.4110  15.4755  15.4996  15.5354  15.5646  15.6935
    15.7744  15.8398  16.0800  16.5298  16.5571  17.5989  17.6723  17.8222
    17.9878

          k = 0.0000 0.2500-0.5000 (  6452 PWs)   bands (ev):

   -88.0408 -72.2403 -72.2293 -72.2249 -72.2211 -72.1927 -72.1897 -72.1844
   -72.1564 -72.0998 -72.0987 -72.0964 -71.9794 -71.9776 -71.9759 -48.2478
   -48.2415 -48.1356 -38.3856 -38.3557 -38.3481 -38.3234 -38.3120 -38.3006
   -38.2913 -38.2896 -38.2861 -38.2720 -38.2585 -38.2466 -38.2283 -38.2262
   -38.2193 -38.2039 -38.1823 -38.1698 -38.1477 -38.1398 -38.1325 -38.1224
   -38.1161 -38.1058 -38.0982 -38.0934 -38.0791 -38.0659 -38.0605 -38.0488
   -38.0445 -38.0298 -38.0249 -37.9912 -37.9799 -37.9722 -37.9100 -37.9011
   -37.8880 -37.8839 -37.8755 -37.8695   9.3362   9.6746  10.9985  11.2605
    11.7699  11.8752  11.9468  11.9639  11.9807  12.0048  12.0402  12.0869
    12.1299  12.2418  12.3610  12.3865  12.5371  12.7035  12.7598  12.7669
    12.8973  12.9540  13.0185  13.0632  13.1220  13.1500  13.2128  13.2587
    13.3458  13.4013  13.5090  13.5194  13.5410  13.6003  13.6341  13.6620
    13.6779  13.7260  13.7630  13.8432  13.9559  13.9965  14.0321  14.0902
    14.2167  14.2760  14.4378  14.4943  14.5326  14.5938  14.6763  14.6984
    14.7254  14.7555  14.7645  14.8045  14.8566  14.8861  14.9710  14.9879
    15.0363  15.0542  15.0970  15.1263  15.1506  15.2060  15.2229  15.2360
    15.2883  15.3147  15.3541  15.4048  15.4582  15.4665  15.4899  15.6933
    15.7815  15.9560  16.0846  17.0143  17.0832  17.1376  17.2371  18.7080
    18.8432

          k = 0.0000-0.5000-0.5000 (  6496 PWs)   bands (ev):

   -88.0409 -72.2372 -72.2305 -72.2273 -72.2213 -72.1925 -72.1883 -72.1858
   -72.1564 -72.1000 -72.0988 -72.0964 -71.9781 -71.9776 -71.9773 -48.2592
   -48.2512 -48.1460 -38.3834 -38.3529 -38.3386 -38.3262 -38.3138 -38.3085
   -38.2980 -38.2919 -38.2875 -38.2750 -38.2695 -38.2580 -38.2276 -38.2270
   -38.2175 -38.1983 -38.1813 -38.1496 -38.1403 -38.1401 -38.1369 -38.1166
   -38.1139 -38.1053 -38.1050 -38.0985 -38.0935 -38.0832 -38.0729 -38.0624
   -38.0553 -38.0352 -38.0317 -37.9825 -37.9811 -37.9768 -37.9046 -37.8935
   -37.8914 -37.8837 -37.8804 -37.8665  10.0265  10.1326  10.1356  10.7202
    12.0312  12.0413  12.0505  12.1317  12.1739  12.2227  12.2346  12.2467
    12.3011  12.3335  12.5051  12.5756  12.5846  12.5991  12.7057  12.7115
    12.8119  12.8254  12.8651  12.9319  12.9344  13.0241  13.0485  13.2596
    13.3287  13.3374  13.3928  13.4174  13.4793  13.5222  13.5321  13.6176
    13.6286  13.6392  13.6398  13.7153  13.7528  13.7666  13.9792  14.0484
    14.1191  14.2253  14.3431  14.4504  14.6110  14.6447  14.6619  14.7082
    14.7132  14.7317  14.7792  14.8207  14.8441  14.8630  14.9000  14.9110
    14.9183  14.9241  14.9369  15.0209  15.0602  15.0698  15.0862  15.0986
    15.1563  15.2050  15.2615  15.2788  15.3410  15.3761  15.3934  15.7227
    15.8273  16.0458  16.1910  17.7845  17.8595  17.9777  18.1112  18.2312
    18.2697

          k = 0.2500 0.2500 0.2500 (  6493 PWs)   bands (ev):

   -88.0408 -72.2406 -72.2268 -72.2268 -72.2218 -72.1907 -72.1907 -72.1854
   -72.1565 -72.0987 -72.0987 -72.0976 -71.9787 -71.9787 -71.9757 -48.2545
   -48.2545 -48.1454 -38.3891 -38.3540 -38.3540 -38.3103 -38.3103 -38.3037
   -38.3026 -38.2962 -38.2793 -38.2793 -38.2538 -38.2387 -38.2387 -38.2266
   -38.2266 -38.2041 -38.1755 -38.1623 -38.1623 -38.1312 -38.1312 -38.1297
   -38.1243 -38.1149 -38.1149 -38.0871 -38.0871 -38.0662 -38.0606 -38.0606
   -38.0296 -38.0292 -38.0292 -38.0024 -37.9747 -37.9747 -37.9067 -37.9067
   -37.8929 -37.8788 -37.8753 -37.8753   8.9387  10.8445  10.8445  11.0210
    11.6000  11.6000  11.6828  11.8886  11.8886  11.9803  12.0628  12.0628
    12.3687  12.3687  12.5456  12.5900  12.5971  12.7459  12.7459  12.8545
    12.8545  12.8901  12.9450  12.9573  12.9573  13.1207  13.1207  13.2143
    13.3176  13.3176  13.3496  13.4855  13.4855  13.5721  13.5721  13.6514
    13.6514  13.7446  13.7873  13.9345  13.9345  14.0373  14.1886  14.1886
    14.2842  14.2842  14.3531  14.5397  14.5830  14.5830  14.5981  14.7585
    14.7585  14.7760  14.8284  14.8512  14.8512  14.9324  14.9431  14.9431
    15.0702  15.0702  15.0818  15.1218  15.1218  15.1689  15.1900  15.1900
    15.2698  15.3283  15.3283  15.5715  15.5715  15.5769  15.6975  15.6975
    15.7253  15.7253  15.8471  16.5768  16.5768  16.6577  18.5229  18.5229
    18.7491

          k = 0.2500 0.2500-0.5000 (  6456 PWs)   bands (ev):

   -88.0408 -72.2382 -72.2291 -72.2267 -72.2223 -72.1907 -72.1902 -72.1855
   -72.1564 -72.0994 -72.0987 -72.0969 -71.9786 -71.9777 -71.9765 -48.2491
   -48.2433 -48.1355 -38.3821 -38.3496 -38.3435 -38.3180 -38.3101 -38.3015
   -38.2950 -38.2890 -38.2835 -38.2738 -38.2589 -38.2443 -38.2424 -38.2222
   -38.2210 -38.1949 -38.1768 -38.1690 -38.1507 -38.1458 -38.1283 -38.1245
   -38.1170 -38.1120 -38.1101 -38.0955 -38.0924 -38.0687 -38.0574 -38.0479
   -38.0345 -38.0284 -38.0217 -37.9958 -37.9833 -37.9724 -37.9079 -37.9016
   -37.8898 -37.8836 -37.8739 -37.8704   9.6128   9.9265  11.2355  11.2387
    11.3843  11.5992  12.0921  12.1399  12.1405  12.1604  12.1801  12.1953
    12.2208  12.3503  12.3774  12.4773  12.6342  12.7318  12.7783  12.8580
    12.9185  12.9432  12.9536  13.0171  13.0656  13.1176  13.1453  13.1575
    13.2184  13.2750  13.4031  13.4105  13.4384  13.4653  13.4712  13.4845
    13.5162  13.5310  13.5333  13.5724  13.7587  13.8825  13.8930  13.9754
    14.0085  14.2187  14.3819  14.4076  14.6173  14.6615  14.7154  14.7191
    14.7664  14.7772  14.8073  14.8342  14.8763  14.9188  14.9753  15.0083
    15.0320  15.0878  15.1025  15.1281  15.1505  15.1756  15.1802  15.2114
    15.2338  15.3389  15.3846  15.3908  15.5012  15.6846  15.7185  15.7640
    15.8287  15.8825  15.9069  16.0025  16.0195  17.6714  17.9811  19.2177
    19.2238

          k = 0.2500-0.5000-0.5000 (  6472 PWs)   bands (ev):

   -88.0408 -72.2353 -72.2303 -72.2275 -72.2233 -72.1913 -72.1885 -72.1866
   -72.1563 -72.0995 -72.0987 -72.0968 -71.9782 -71.9773 -71.9772 -48.2494
   -48.2488 -48.1404 -38.3769 -38.3428 -38.3336 -38.3196 -38.3109 -38.3027
   -38.3001 -38.2849 -38.2808 -38.2709 -38.2621 -38.2559 -38.2389 -38.2214
   -38.2150 -38.1962 -38.1704 -38.1564 -38.1541 -38.1440 -38.1423 -38.1346
   -38.1342 -38.1215 -38.1182 -38.0972 -38.0943 -38.0587 -38.0526 -38.0494
   -38.0323 -38.0247 -38.0238 -37.9909 -37.9841 -37.9805 -37.9055 -37.8995
   -37.8982 -37.8850 -37.8768 -37.8724  10.2870  10.4001  10.4074  10.9217
    11.7119  11.8849  11.9066  12.2325  12.2442  12.2539  12.2631  12.4977
    12.5370  12.5512  12.5645  12.6352  12.6438  12.7092  12.7402  12.7515
    12.7864  12.8867  12.8947  12.9068  12.9439  12.9912  13.0080  13.1297
    13.1767  13.1832  13.1853  13.1964  13.2541  13.2942  13.3335  13.3563
    13.3841  13.3970  13.4525  13.4998  13.5366  13.5889  13.6767  13.7026
    13.8636  14.2459  14.2584  14.2859  14.7120  14.7355  14.7953  14.8633
    14.8898  14.8981  14.9364  14.9508  14.9694  14.9949  15.0228  15.0412
    15.0573  15.0784  15.0796  15.0975  15.1148  15.1423  15.1627  15.2225
    15.2237  15.2526  15.2932  15.3648  15.4076  15.4283  15.4383  15.6334
    15.6967  15.8083  15.9231  16.6283  16.7418  16.7544  16.9838  20.1428
    20.2898

          k =-0.5000-0.5000-0.5000 (  6488 PWs)   bands (ev):

   -88.0408 -72.2314 -72.2301 -72.2301 -72.2252 -72.1889 -72.1887 -72.1887
   -72.1561 -72.0987 -72.0987 -72.0976 -71.9783 -71.9771 -71.9771 -48.2511
   -48.2511 -48.1425 -38.3712 -38.3271 -38.3271 -38.3178 -38.3069 -38.3069
   -38.3029 -38.2711 -38.2711 -38.2688 -38.2555 -38.2526 -38.2526 -38.2159
   -38.2159 -38.2003 -38.1615 -38.1615 -38.1586 -38.1542 -38.1519 -38.1519
   -38.1467 -38.1316 -38.1316 -38.0959 -38.0959 -38.0458 -38.0338 -38.0338
   -38.0239 -38.0180 -38.0180 -37.9989 -37.9913 -37.9913 -37.9041 -37.9039
   -37.9039 -37.8911 -37.8803 -37.8803  10.8940  11.0240  11.0455  11.0455
    11.2043  11.2259  11.2259  12.2021  12.6272  12.6272  12.6549  12.6591
    12.6591  12.6621  12.6621  12.6715  12.7206  12.7206  12.7486  12.8294
    12.8767  12.8767  12.9194  12.9194  13.0032  13.0032  13.0183  13.0498
    13.0503  13.0503  13.0730  13.0885  13.0885  13.0928  13.0928  13.0949
    13.1368  13.1523  13.1523  13.1655  13.1655  13.1733  13.2858  13.7121
    13.7121  14.1881  14.2251  14.2251  14.7538  14.7538  14.9194  14.9263
    14.9263  14.9616  14.9616  14.9762  15.0113  15.0113  15.0435  15.0607
    15.0607  15.0684  15.1710  15.1710  15.3116  15.3196  15.3196  15.3691
    15.4052  15.4052  15.4402  15.4402  15.4759  15.4979  15.4979  15.7356
    15.7356  15.7800  15.9468  16.0235  16.0485  16.0485  16.0580  22.5176
    22.5177

          k =-0.2500 0.0000 0.2500 (  6500 PWs)   bands (ev):

   -88.0409 -72.2433 -72.2254 -72.2252 -72.2212 -72.1928 -72.1917 -72.1832
   -72.1566 -72.0998 -72.0987 -72.0965 -71.9795 -71.9791 -71.9745 -48.2588
   -48.2554 -48.1448 -38.3903 -38.3627 -38.3613 -38.3258 -38.3212 -38.3071
   -38.2987 -38.2849 -38.2787 -38.2709 -38.2534 -38.2410 -38.2359 -38.2275
   -38.2170 -38.2083 -38.1857 -38.1553 -38.1491 -38.1395 -38.1289 -38.1203
   -38.1136 -38.1121 -38.1005 -38.0987 -38.0808 -38.0652 -38.0632 -38.0531
   -38.0446 -38.0383 -38.0290 -38.0059 -37.9781 -37.9727 -37.9232 -37.9145
   -37.8836 -37.8795 -37.8740 -37.8661   8.6482  10.5962  10.8038  11.4009
    11.6320  11.6810  11.7016  11.7497  11.7526  11.8780  11.8923  11.9398
    12.1881  12.2224  12.5375  12.5899  12.6030  12.7029  12.7824  12.8467
    12.8607  12.8873  12.9239  12.9741  13.0072  13.0194  13.1858  13.3287
    13.3474  13.3941  13.4872  13.5260  13.6657  13.6733  13.7083  13.7303
    13.7584  13.9020  13.9415  14.0693  14.1028  14.2076  14.3324  14.3537
    14.3871  14.4008  14.4396  14.4640  14.4964  14.5504  14.5815  14.6407
    14.6744  14.7837  14.8396  14.8943  14.9175  14.9497  15.0157  15.0578
    15.0917  15.0979  15.1223  15.1426  15.1517  15.1987  15.2857  15.3350
    15.3485  15.4004  15.4451  15.4875  15.5081  15.5245  15.6010  15.6040
    15.7308  15.7560  16.2155  16.5334  16.5691  17.5007  17.6744  17.8305
    18.0688

          k = 0.2500-0.2500 0.2500 (  6493 PWs)   bands (ev):

   -88.0408 -72.2414 -72.2268 -72.2247 -72.2226 -72.1926 -72.1907 -72.1840
   -72.1565 -72.0999 -72.0987 -72.0965 -71.9792 -71.9787 -71.9752 -48.2545
   -48.2542 -48.1458 -38.3859 -38.3568 -38.3527 -38.3232 -38.3145 -38.3003
   -38.2978 -38.2884 -38.2801 -38.2796 -38.2568 -38.2404 -38.2404 -38.2311
   -38.2207 -38.1949 -38.1856 -38.1581 -38.1549 -38.1367 -38.1351 -38.1296
   -38.1281 -38.1121 -38.1079 -38.0908 -38.0881 -38.0619 -38.0577 -38.0538
   -38.0327 -38.0310 -38.0289 -38.0037 -37.9793 -37.9736 -37.9184 -37.9053
   -37.8875 -37.8836 -37.8725 -37.8708   8.9390  10.8006  10.8449  11.0699
    11.5633  11.5902  11.7411  11.8736  11.9033  12.0048  12.0461  12.0596
    12.3481  12.3641  12.5398  12.5671  12.6032  12.7563  12.7647  12.8481
    12.8643  12.8911  12.9243  12.9835  12.9849  13.1071  13.1112  13.2258
    13.3084  13.3304  13.3455  13.4624  13.5120  13.5671  13.5676  13.6751
    13.6864  13.7332  13.7616  13.9313  13.9767  14.0437  14.1501  14.1853
    14.2398  14.2574  14.3915  14.4401  14.4910  14.5524  14.6032  14.7231
    14.7602  14.7967  14.8319  14.8899  14.9252  14.9637  14.9903  15.0086
    15.0365  15.0534  15.0774  15.1067  15.1081  15.1259  15.1611  15.1918
    15.3440  15.3735  15.3918  15.5119  15.5652  15.5683  15.5947  15.6903
    15.7460  15.8503  15.8522  16.5569  16.5578  16.6742  18.4691  18.5238
    18.8063

          k = 0.2500-0.2500-0.5000 (  6456 PWs)   bands (ev):

   -88.0408 -72.2386 -72.2295 -72.2245 -72.2233 -72.1926 -72.1892 -72.1850
   -72.1563 -72.0999 -72.0987 -72.0964 -71.9791 -71.9775 -71.9762 -48.2453
   -48.2447 -48.1381 -38.3811 -38.3490 -38.3438 -38.3235 -38.3099 -38.2983
   -38.2945 -38.2904 -38.2839 -38.2711 -38.2573 -38.2462 -38.2368 -38.2243
   -38.2217 -38.1942 -38.1730 -38.1696 -38.1531 -38.1458 -38.1352 -38.1307
   -38.1240 -38.1156 -38.1066 -38.0945 -38.0870 -38.0675 -38.0540 -38.0466
   -38.0320 -38.0287 -38.0137 -37.9947 -37.9806 -37.9779 -37.9078 -37.9012
   -37.8916 -37.8838 -37.8755 -37.8721   9.6122   9.9276  11.1976  11.2758
    11.3595  11.6366  12.0779  12.1415  12.1441  12.1593  12.1949  12.2004
    12.2115  12.3470  12.3837  12.4764  12.6346  12.7495  12.7601  12.8562
    12.9005  12.9270  12.9624  13.0347  13.0435  13.1296  13.1476  13.1637
    13.2601  13.2954  13.4089  13.4102  13.4334  13.4445  13.4650  13.4897
    13.5057  13.5260  13.5301  13.5407  13.7628  13.8721  13.9092  13.9764
    13.9937  14.2221  14.3736  14.4057  14.5933  14.6419  14.6756  14.7410
    14.7489  14.7835  14.7922  14.8338  14.8684  14.9196  14.9713  15.0241
    15.0339  15.0587  15.0930  15.1572  15.1589  15.1765  15.1964  15.2250
    15.2392  15.3430  15.4109  15.4390  15.5258  15.5926  15.7331  15.8298
    15.8453  15.8753  15.9206  15.9947  16.0222  17.6476  17.9582  19.1595
    19.2361

 ------ SPIN DOWN ----------


          k = 0.0000 0.0000 0.0000 (  6451 PWs)   bands (ev):

   -86.7121 -68.9527 -68.9323 -68.9323 -68.8780 -68.8649 -68.8649 -68.8516
   -68.8486 -68.8486 -68.8468 -68.8382 -68.8382 -68.8208 -68.7964 -46.9077
   -46.9077 -46.8331 -35.2122 -35.2012 -35.2012 -35.1739 -35.1559 -35.1559
   -35.0833 -35.0833 -35.0803 -35.0235 -35.0219 -35.0219 -35.0087 -35.0087
   -35.0006 -35.0005 -35.0005 -34.9977 -34.9788 -34.9788 -34.9668 -34.9631
   -34.9631 -34.9602 -34.9468 -34.9439 -34.9338 -34.9338 -34.9269 -34.9269
   -34.9160 -34.9160 -34.8924 -34.8279 -34.8121 -34.8121 -34.8025 -34.8025
   -34.7957 -34.7888 -34.7888 -34.7828   8.1954  12.1593  12.2073  12.2073
    12.3271  12.3271  12.4369  12.9012  12.9012  12.9717  12.9939  12.9939
    13.6935  13.6935  13.7197  14.3097  14.3097  14.4213  14.7247  14.7247
    14.7443  14.8884  14.8884  14.9753  15.1827  15.1827  15.3158  15.3988
    15.3988  15.6727  15.7128  15.8927  15.9866  15.9866  16.3053  16.3053
    16.3833  16.3833  16.4470  16.5052  16.5159  16.5159  16.5336  16.5843
    16.5843  16.6655  16.6655  16.7349  17.0156  17.0156  17.1182  17.2457
    17.2457  17.3111  17.3111  17.3331  17.4918  17.4918  17.5938  17.9534
    18.0207  18.0207  18.0710  18.0986  18.0986  18.2363  18.2363  18.3662
    18.3662  18.3865  18.3872  18.3896  18.3896  18.4510  18.5848  18.5848
    18.7797  18.7797  18.8337  18.8337  18.8886  18.8886  18.9222  18.9801
    19.0738

          k = 0.0000 0.0000 0.2500 (  6495 PWs)   bands (ev):

   -86.7122 -68.9499 -68.9348 -68.9323 -68.8776 -68.8686 -68.8647 -68.8539
   -68.8505 -68.8489 -68.8446 -68.8383 -68.8323 -68.8198 -68.7986 -46.9204
   -46.9161 -46.8436 -35.2058 -35.1956 -35.1944 -35.1661 -35.1559 -35.1542
   -35.0941 -35.0937 -35.0811 -35.0668 -35.0650 -35.0530 -35.0414 -35.0230
   -35.0219 -35.0053 -34.9840 -34.9810 -34.9781 -34.9690 -34.9584 -34.9540
   -34.9407 -34.9356 -34.9317 -34.9301 -34.9184 -34.9123 -34.9116 -34.9069
   -34.9052 -34.8959 -34.8856 -34.8369 -34.8278 -34.8226 -34.8177 -34.8142
   -34.8142 -34.8083 -34.8071 -34.8019   8.4960  10.7795  12.3593  12.3856
    12.4841  12.5030  12.9101  12.9294  12.9682  12.9762  13.1684  13.2985
    13.7193  13.8217  13.8854  14.2184  14.3255  14.3902  14.5394  14.7858
    14.7934  14.8650  14.9071  15.0108  15.0478  15.0708  15.3291  15.3345
    15.4085  15.4946  15.6223  15.8095  15.8557  15.8949  15.9957  16.0628
    16.0965  16.1447  16.1616  16.2006  16.2584  16.3147  16.3617  16.5012
    16.5445  16.6300  16.7640  16.7670  16.8817  16.9118  17.0681  17.1986
    17.2023  17.2841  17.3745  17.6412  17.6929  17.7332  17.8207  17.8940
    17.9135  17.9752  18.0492  18.0838  18.1513  18.1688  18.2896  18.3475
    18.3627  18.3815  18.4002  18.4929  18.5290  18.6181  18.6357  18.6787
    18.7245  18.7475  18.8364  18.8469  18.8651  18.9054  18.9440  18.9473
    18.9788

          k = 0.0000 0.0000-0.5000 (  6480 PWs)   bands (ev):

   -86.7122 -68.9453 -68.9391 -68.9323 -68.8766 -68.8727 -68.8645 -68.8548
   -68.8506 -68.8491 -68.8443 -68.8383 -68.8282 -68.8173 -68.8017 -46.9204
   -46.9117 -46.8407 -35.1648 -35.1612 -35.1582 -35.1545 -35.1520 -35.1424
   -35.1416 -35.1286 -35.1124 -35.0961 -35.0897 -35.0729 -35.0534 -35.0331
   -35.0253 -35.0113 -34.9960 -34.9873 -34.9814 -34.9696 -34.9634 -34.9548
   -34.9371 -34.9180 -34.9088 -34.9082 -34.9009 -34.8983 -34.8907 -34.8788
   -34.8728 -34.8714 -34.8612 -34.8451 -34.8360 -34.8329 -34.8312 -34.8276
   -34.8265 -34.8216 -34.8191 -34.8189   9.2209   9.6029  12.5573  12.6282
    12.6536  12.7359  12.8530  12.8554  12.9312  13.1757  13.4969  13.5852
    13.7158  13.9669  13.9909  14.0530  14.0772  14.3146  14.4602  14.5916
    14.8033  14.8274  14.9427  15.0606  15.1699  15.2904  15.3982  15.4341
    15.4419  15.4669  15.4747  15.4862  15.5063  15.5073  15.5648  15.7472
    15.8452  15.8634  15.9402  15.9425  16.0496  16.1662  16.2592  16.3068
    16.3531  16.4932  16.6677  16.9574  17.0787  17.2666  17.3601  17.4178
    17.4774  17.4886  17.5890  17.6339  17.6669  17.7974  17.7974  17.8325
    17.8870  17.9279  18.0319  18.2242  18.2354  18.3080  18.3255  18.3465
    18.3676  18.3749  18.3940  18.4068  18.4983  18.5396  18.5656  18.5894
    18.6422  18.7099  18.7712  18.7990  18.8358  18.9375  19.0067  19.0269
    19.0427

          k = 0.0000 0.2500 0.2500 (  6500 PWs)   bands (ev):

   -86.7122 -68.9472 -68.9361 -68.9333 -68.8773 -68.8680 -68.8673 -68.8559
   -68.8518 -68.8515 -68.8417 -68.8356 -68.8283 -68.8205 -68.8003 -46.9210
   -46.9154 -46.8471 -35.1980 -35.1812 -35.1720 -35.1544 -35.1489 -35.1470
   -35.1214 -35.1145 -35.1048 -35.0855 -35.0730 -35.0509 -35.0429 -35.0221
   -35.0062 -35.0039 -35.0015 -34.9833 -34.9808 -34.9737 -34.9680 -34.9573
   -34.9526 -34.9506 -34.9377 -34.9305 -34.9109 -34.9077 -34.8948 -34.8928
   -34.8847 -34.8632 -34.8617 -34.8513 -34.8356 -34.8270 -34.8270 -34.8204
   -34.8190 -34.8142 -34.8023 -34.7992   8.7970  10.9484  11.0812  12.4070
    12.6134  12.6277  13.0470  13.1406  13.1856  13.2350  13.3708  13.4871
    13.8209  13.8791  14.0593  14.1802  14.3352  14.3600  14.5384  14.6837
    14.7901  14.8184  14.8862  14.9309  15.0261  15.0445  15.1321  15.2347
    15.3745  15.4736  15.4948  15.6418  15.6864  15.7403  15.7740  15.8438
    15.8932  15.9209  16.0163  16.1238  16.1458  16.2024  16.2184  16.3618
    16.4768  16.6067  16.6636  16.8305  16.9406  17.1122  17.1207  17.1581
    17.3098  17.3286  17.4091  17.5190  17.6175  17.7352  17.8400  17.9707
    17.9935  18.0549  18.0857  18.1081  18.1389  18.1952  18.2177  18.2704
    18.2750  18.3480  18.3833  18.3858  18.4234  18.4256  18.4725  18.5452
    18.5664  18.7077  18.8594  18.9955  19.0355  19.5229  19.6293  19.7130
    19.7233

          k = 0.0000 0.2500-0.5000 (  6452 PWs)   bands (ev):

   -86.7121 -68.9434 -68.9387 -68.9338 -68.8759 -68.8723 -68.8667 -68.8571
   -68.8528 -68.8519 -68.8406 -68.8339 -68.8259 -68.8190 -68.8027 -46.9113
   -46.9053 -46.8334 -35.1695 -35.1637 -35.1565 -35.1537 -35.1500 -35.1434
   -35.1380 -35.1183 -35.1069 -35.0791 -35.0785 -35.0577 -35.0457 -35.0368
   -35.0246 -35.0016 -34.9981 -34.9873 -34.9792 -34.9761 -34.9728 -34.9614
   -34.9413 -34.9398 -34.9342 -34.9227 -34.9163 -34.9043 -34.8935 -34.8799
   -34.8671 -34.8549 -34.8462 -34.8375 -34.8360 -34.8303 -34.8287 -34.8257
   -34.8155 -34.8133 -34.8087 -34.8050   9.5058   9.8652  11.4872  11.8612
    12.8190  12.9130  13.0815  13.2115  13.4767  13.5329  13.5985  13.6674
    13.8040  13.9694  14.0245  14.0773  14.1832  14.3761  14.4684  14.6243
    14.7155  14.8245  14.8726  14.9870  15.0351  15.0819  15.1976  15.2339
    15.2740  15.2989  15.4198  15.4583  15.4849  15.5291  15.5920  15.6494
    15.7128  15.7657  15.8436  15.8736  16.0031  16.0395  16.0969  16.3839
    16.4113  16.4769  16.8117  16.9013  16.9927  17.1186  17.2536  17.4123
    17.4360  17.4906  17.5355  17.5577  17.5846  17.6595  17.7298  17.8374
    17.8875  17.9336  18.0142  18.0631  18.1381  18.2230  18.2346  18.2698
    18.3069  18.3338  18.3745  18.3816  18.4135  18.4186  18.4429  18.5522
    18.6449  18.7414  18.8546  19.2797  19.3097  19.3345  19.3981  20.2314
    20.3809

          k = 0.0000-0.5000-0.5000 (  6496 PWs)   bands (ev):

   -86.7122 -68.9397 -68.9390 -68.9365 -68.8748 -68.8708 -68.8703 -68.8601
   -68.8534 -68.8527 -68.8394 -68.8287 -68.8241 -68.8215 -68.8039 -46.9227
   -46.9147 -46.8436 -35.1714 -35.1600 -35.1572 -35.1571 -35.1559 -35.1489
   -35.1382 -35.1168 -35.1063 -35.0686 -35.0585 -35.0532 -35.0207 -35.0199
   -35.0159 -35.0049 -35.0001 -34.9955 -34.9906 -34.9872 -34.9831 -34.9765
   -34.9682 -34.9668 -34.9497 -34.9495 -34.9412 -34.9086 -34.8823 -34.8763
   -34.8648 -34.8535 -34.8457 -34.8373 -34.8364 -34.8305 -34.8302 -34.8282
   -34.8099 -34.8053 -34.8028 -34.7972  10.2345  10.3744  10.4164  11.0334
    13.2438  13.2550  13.3068  13.4553  13.4969  13.5891  13.6871  13.7576
    13.8992  13.9613  14.0322  14.1286  14.3948  14.4168  14.4307  14.4861
    14.6676  14.6821  14.7451  14.7896  14.8433  14.9958  15.0280  15.0901
    15.2308  15.2574  15.3097  15.3575  15.3645  15.4384  15.5358  15.5774
    15.6015  15.6801  15.7647  15.9691  15.9700  15.9961  16.0376  16.3674
    16.3988  16.6046  16.6161  16.8483  16.9051  16.9756  17.1629  17.2539
    17.2752  17.4686  17.6107  17.6339  17.7076  17.7371  17.7917  17.7938
    17.8221  17.8637  17.9156  17.9652  18.0311  18.1068  18.1284  18.1947
    18.2110  18.2629  18.2887  18.2916  18.3331  18.3906  18.4206  18.5993
    18.7508  18.8099  18.9861  19.7542  19.8739  20.0918  20.1506  20.1648
    20.2526

          k = 0.2500 0.2500 0.2500 (  6493 PWs)   bands (ev):

   -86.7122 -68.9443 -68.9358 -68.9358 -68.8770 -68.8686 -68.8686 -68.8576
   -68.8516 -68.8516 -68.8440 -68.8281 -68.8281 -68.8221 -68.8015 -46.9180
   -46.9180 -46.8431 -35.1867 -35.1578 -35.1578 -35.1443 -35.1443 -35.1439
   -35.1288 -35.1266 -35.1266 -35.0693 -35.0693 -35.0530 -35.0530 -35.0385
   -35.0341 -35.0161 -34.9955 -34.9955 -34.9794 -34.9794 -34.9729 -34.9426
   -34.9426 -34.9379 -34.9253 -34.9253 -34.9157 -34.9157 -34.9153 -34.8990
   -34.8768 -34.8517 -34.8476 -34.8476 -34.8286 -34.8286 -34.8286 -34.8196
   -34.8196 -34.8100 -34.8100 -34.8059   9.0913  11.1958  11.1958  11.3785
    12.6042  12.6042  12.7882  13.4125  13.4125  13.5046  13.6396  13.6396
    14.0301  14.0301  14.0726  14.1516  14.3775  14.3775  14.4000  14.7393
    14.7653  14.7653  14.8492  14.8492  15.0539  15.0544  15.0544  15.0549
    15.3737  15.3737  15.4496  15.4826  15.4826  15.6295  15.6295  15.6459
    15.6769  15.7461  15.7461  16.0192  16.0192  16.0561  16.0561  16.2284
    16.4938  16.6603  16.6603  16.9776  17.1448  17.1448  17.2407  17.2407
    17.3101  17.3238  17.5189  17.5682  17.5682  17.8090  17.8322  17.8322
    17.9310  18.0400  18.0400  18.1462  18.2063  18.2063  18.2497  18.2497
    18.2941  18.2941  18.3177  18.3641  18.3641  18.4853  18.4853  18.5478
    18.5935  18.5935  18.6458  18.9886  18.9886  19.0233  20.2491  20.2491
    20.3991

          k = 0.2500 0.2500-0.5000 (  6456 PWs)   bands (ev):

   -86.7122 -68.9416 -68.9379 -68.9356 -68.8756 -68.8728 -68.8692 -68.8575
   -68.8521 -68.8513 -68.8432 -68.8280 -68.8264 -68.8202 -68.8032 -46.9127
   -46.9070 -46.8334 -35.1653 -35.1624 -35.1596 -35.1492 -35.1384 -35.1333
   -35.1191 -35.1174 -35.1062 -35.0790 -35.0730 -35.0575 -35.0492 -35.0341
   -35.0255 -35.0214 -35.0170 -35.0035 -34.9902 -34.9857 -34.9836 -34.9491
   -34.9482 -34.9432 -34.9275 -34.9155 -34.9043 -34.9026 -34.8894 -34.8826
   -34.8751 -34.8525 -34.8524 -34.8428 -34.8303 -34.8280 -34.8225 -34.8223
   -34.8162 -34.8151 -34.8107 -34.8065   9.7902  10.1293  11.7369  11.7387
    11.9702  12.2439  13.1446  13.5647  13.6127  13.6993  13.7377  13.7829
    13.9477  14.0265  14.1276  14.2518  14.3073  14.3829  14.5465  14.6337
    14.6591  14.8453  14.8597  14.9038  14.9834  15.0052  15.0843  15.1110
    15.1527  15.1964  15.3499  15.3794  15.3878  15.4900  15.5032  15.5609
    15.5638  15.6544  15.6958  15.8076  15.8669  15.8995  15.9067  16.1809
    16.3965  16.5351  16.7295  16.8310  17.0008  17.0889  17.3455  17.3842
    17.4669  17.5887  17.6588  17.6843  17.7259  17.7419  17.8371  17.9158
    17.9582  17.9837  18.0748  18.1413  18.1416  18.1798  18.2310  18.2748
    18.2886  18.3091  18.3296  18.3593  18.3657  18.4250  18.4617  18.4670
    18.5655  18.5658  18.6070  18.6730  18.7099  19.7848  20.0619  20.7893
    20.8246

          k = 0.2500-0.5000-0.5000 (  6472 PWs)   bands (ev):

   -86.7122 -68.9392 -68.9389 -68.9360 -68.8753 -68.8731 -68.8724 -68.8572
   -68.8527 -68.8509 -68.8428 -68.8278 -68.8229 -68.8216 -68.8040 -46.9130
   -46.9124 -46.8382 -35.1572 -35.1489 -35.1480 -35.1404 -35.1394 -35.1329
   -35.1205 -35.1096 -35.1007 -35.0640 -35.0628 -35.0562 -35.0487 -35.0470
   -35.0442 -35.0358 -35.0342 -35.0316 -35.0051 -34.9918 -34.9874 -34.9447
   -34.9384 -34.9368 -34.9188 -34.9166 -34.9139 -34.8978 -34.8823 -34.8823
   -34.8667 -34.8550 -34.8488 -34.8459 -34.8338 -34.8317 -34.8292 -34.8251
   -34.8164 -34.8163 -34.8149 -34.8105  10.5026  10.6477  10.6931  11.2417
    12.2990  12.4998  12.5262  13.2218  13.8053  13.9388  13.9995  14.0347
    14.0787  14.1800  14.2414  14.3507  14.4486  14.4721  14.5090  14.5850
    14.6288  14.7363  14.7856  14.8383  14.8750  14.9736  15.0025  15.0698
    15.1552  15.1970  15.2557  15.2560  15.2907  15.3664  15.3829  15.4462
    15.4545  15.6274  15.6350  15.7282  15.7289  15.7671  15.7874  15.8460
    16.0452  16.5993  16.6469  16.6983  17.1025  17.1441  17.4610  17.4752
    17.6343  17.7542  17.7873  17.7892  17.8802  17.8869  17.8999  17.9252
    17.9372  17.9668  17.9877  18.0402  18.0658  18.1164  18.1662  18.1711
    18.1836  18.2159  18.2784  18.2821  18.3015  18.3240  18.3630  18.4712
    18.5276  18.5849  18.6417  19.0571  19.1408  19.1464  19.3119  21.6614
    21.8221

          k =-0.5000-0.5000-0.5000 (  6488 PWs)   bands (ev):

   -86.7122 -68.9387 -68.9387 -68.9355 -68.8764 -68.8743 -68.8743 -68.8551
   -68.8494 -68.8494 -68.8480 -68.8273 -68.8217 -68.8217 -68.8042 -46.9146
   -46.9146 -46.8402 -35.1325 -35.1325 -35.1226 -35.1176 -35.1176 -35.1148
   -35.1019 -35.0939 -35.0939 -35.0853 -35.0853 -35.0783 -35.0705 -35.0705
   -35.0674 -35.0576 -35.0576 -35.0555 -35.0147 -34.9879 -34.9879 -34.9372
   -34.9372 -34.9199 -34.8876 -34.8863 -34.8863 -34.8855 -34.8855 -34.8778
   -34.8689 -34.8555 -34.8555 -34.8486 -34.8399 -34.8387 -34.8387 -34.8319
   -34.8319 -34.8305 -34.8257 -34.8257  11.1356  11.3155  11.3588  11.3588
    11.5337  11.5879  11.5879  12.7246  14.0088  14.0088  14.1694  14.1694
    14.2457  14.5577  14.5579  14.5579  14.5917  14.5917  14.6338  14.6742
    14.6742  14.8351  14.8602  14.8602  14.9071  15.0845  15.0845  15.1498
    15.1846  15.1885  15.1885  15.1946  15.1946  15.2143  15.2495  15.2495
    15.2573  15.2573  15.2623  15.2966  15.4622  15.4622  15.4950  15.7666
    15.7666  16.5465  16.6638  16.6638  17.2357  17.2357  17.5760  17.5760
    17.8055  18.0607  18.0680  18.0680  18.0740  18.0740  18.0897  18.0897
    18.1005  18.1175  18.1175  18.1216  18.1216  18.1325  18.1413  18.1614
    18.1614  18.1664  18.1898  18.1898  18.1992  18.3005  18.3005  18.3565
    18.3565  18.3922  18.4946  18.5908  18.5908  18.6076  18.6968  23.6097
    23.6934

          k =-0.2500 0.0000 0.2500 (  6500 PWs)   bands (ev):

   -86.7122 -68.9478 -68.9347 -68.9339 -68.8768 -68.8702 -68.8662 -68.8551
   -68.8528 -68.8508 -68.8414 -68.8344 -68.8312 -68.8190 -68.8004 -46.9221
   -46.9188 -46.8424 -35.1935 -35.1882 -35.1855 -35.1628 -35.1450 -35.1444
   -35.1175 -35.1137 -35.0878 -35.0694 -35.0632 -35.0546 -35.0408 -35.0228
   -35.0158 -35.0040 -34.9916 -34.9887 -34.9824 -34.9798 -34.9750 -34.9705
   -34.9605 -34.9458 -34.9308 -34.9220 -34.9195 -34.9131 -34.8993 -34.8954
   -34.8856 -34.8619 -34.8584 -34.8467 -34.8369 -34.8277 -34.8260 -34.8203
   -34.8133 -34.8089 -34.8074 -34.7979   8.7986  10.8737  11.1616  12.4000
    12.6068  12.6230  13.0718  13.1647  13.1684  13.3081  13.3350  13.4486
    13.8001  13.8832  13.9892  14.1695  14.3126  14.4490  14.5200  14.7301
    14.7625  14.8028  14.8760  14.9102  15.0065  15.1154  15.1701  15.3278
    15.3862  15.4498  15.5085  15.5991  15.6357  15.7256  15.7696  15.8122
    15.9159  15.9316  16.0086  16.0990  16.1388  16.1967  16.3095  16.4143
    16.4795  16.4929  16.7005  16.8279  16.8978  16.9535  17.1257  17.2334
    17.2704  17.3323  17.4086  17.6188  17.6995  17.7799  17.8782  17.9260
    17.9421  18.0042  18.0759  18.1128  18.1366  18.2092  18.2151  18.2576
    18.2714  18.3085  18.3617  18.3844  18.4336  18.4738  18.4925  18.5265
    18.5488  18.6204  18.9990  19.0121  19.0485  19.4204  19.5182  19.7245
    19.8493

          k = 0.2500-0.2500 0.2500 (  6493 PWs)   bands (ev):

   -86.7122 -68.9457 -68.9358 -68.9341 -68.8765 -68.8709 -68.8686 -68.8553
   -68.8535 -68.8515 -68.8408 -68.8331 -68.8281 -68.8191 -68.8018 -46.9180
   -46.9176 -46.8435 -35.1797 -35.1741 -35.1718 -35.1521 -35.1436 -35.1397
   -35.1297 -35.1137 -35.0884 -35.0713 -35.0636 -35.0584 -35.0450 -35.0381
   -35.0315 -35.0262 -35.0164 -34.9992 -34.9973 -34.9809 -34.9758 -34.9415
   -34.9406 -34.9312 -34.9240 -34.9216 -34.9151 -34.9101 -34.9066 -34.8990
   -34.8789 -34.8586 -34.8478 -34.8467 -34.8360 -34.8265 -34.8216 -34.8179
   -34.8158 -34.8114 -34.8107 -34.8086   9.0945  11.0966  11.1967  11.4877
    12.5542  12.5912  12.8454  13.4459  13.4998  13.5361  13.6146  13.6179
    13.9237  13.9426  14.0448  14.2102  14.2889  14.3520  14.5088  14.6157
    14.7837  14.8207  14.8426  14.9238  14.9662  15.0478  15.1528  15.2760
    15.3129  15.3360  15.3893  15.4677  15.5265  15.5660  15.6113  15.7129
    15.7527  15.7935  15.8428  15.8696  16.0114  16.0242  16.0655  16.2482
    16.5151  16.5188  16.6497  16.8344  16.8841  17.1095  17.1616  17.4125
    17.4413  17.4861  17.5284  17.5956  17.6917  17.7769  17.8509  17.9374
    17.9678  17.9767  18.0677  18.0924  18.1044  18.2070  18.2429  18.2654
    18.2744  18.3007  18.3393  18.3658  18.4409  18.4642  18.4783  18.5207
    18.5711  18.5978  18.6269  18.9668  18.9719  19.0347  20.2044  20.2562
    20.4465

          k = 0.2500-0.2500-0.5000 (  6456 PWs)   bands (ev):

   -86.7122 -68.9422 -68.9387 -68.9340 -68.8756 -68.8730 -68.8699 -68.8558
   -68.8539 -68.8513 -68.8409 -68.8325 -68.8238 -68.8197 -68.8034 -46.9089
   -46.9084 -46.8359 -35.1629 -35.1566 -35.1545 -35.1521 -35.1482 -35.1298
   -35.1259 -35.1081 -35.0926 -35.0795 -35.0755 -35.0678 -35.0554 -35.0481
   -35.0311 -35.0196 -35.0161 -34.9995 -34.9959 -34.9898 -34.9827 -34.9530
   -34.9408 -34.9326 -34.9168 -34.9054 -34.9047 -34.8991 -34.8971 -34.8792
   -34.8769 -34.8524 -34.8521 -34.8439 -34.8341 -34.8312 -34.8234 -34.8211
   -34.8188 -34.8137 -34.8118 -34.8080   9.7908  10.1319  11.6606  11.8082
    11.9261  12.2993  13.1382  13.5498  13.6410  13.7381  13.8172  13.8656
    13.8924  13.9378  14.1107  14.1484  14.3106  14.3984  14.4694  14.5880
    14.7383  14.8296  14.8957  14.9205  14.9661  15.0057  15.0830  15.1483
    15.1747  15.2463  15.3332  15.4177  15.4269  15.4729  15.4802  15.5187
    15.6052  15.6715  15.6933  15.7848  15.8234  15.8499  15.9168  16.2430
    16.3385  16.5801  16.6996  16.8085  16.9540  16.9939  17.3742  17.4429
    17.4792  17.5153  17.6362  17.7246  17.7914  17.7962  17.8481  17.9253
    17.9794  18.0107  18.0326  18.0921  18.1590  18.2002  18.2200  18.2743
    18.3198  18.3292  18.3470  18.3492  18.3963  18.4327  18.4486  18.5272
    18.5592  18.5756  18.5854  18.6074  18.6837  19.7709  20.0343  20.7505
    20.8273

     the Fermi energy is    16.2203 ev

!    total energy              =   -3807.98419697 Ry
     estimated scf accuracy    <       0.00000062 Ry
     smearing contrib. (-TS)   =       0.01645579 Ry
     internal energy E=F+TS    =   -3808.00065276 Ry

     The total energy is F=E-TS. E is the sum of the following terms:
     one-electron contribution =   -1981.10832552 Ry
     hartree contribution      =    1116.71534155 Ry
     xc contribution           =    -422.90418475 Ry
     ewald contribution        =   -2520.70348404 Ry

     total magnetization       =    36.55 Bohr mag/cell
     absolute magnetization    =    38.96 Bohr mag/cell

     convergence has been achieved in  23 iterations

     negative rho (up, down):  0.000E+00 4.301E-03

     Forces acting on atoms (cartesian axes, Ry/au):

     atom    1 type  2   force =     0.00607153    0.00607153    0.00607153
     atom    2 type  1   force =    -0.01123983    0.00909432    0.00909432
     atom    3 type  1   force =     0.00909432   -0.01123983    0.00909432
     atom    4 type  1   force =    -0.00714712   -0.00714712    0.01007825
     atom    5 type  1   force =     0.00909432    0.00909432   -0.01123983
     atom    6 type  1   force =    -0.00714712    0.01007825   -0.00714712
     atom    7 type  1   force =     0.01007825   -0.00714712   -0.00714712
     atom    8 type  1   force =    -0.01334643   -0.01334643   -0.01334643
     atom    9 type  1   force =     0.00551673   -0.00164007   -0.00164007
     atom   10 type  1   force =    -0.00164007    0.00551673   -0.00164007
     atom   11 type  1   force =    -0.00204284   -0.00204284    0.00157124
     atom   12 type  1   force =    -0.00164007   -0.00164007    0.00551673
     atom   13 type  1   force =    -0.00204284    0.00157124   -0.00204284
     atom   14 type  1   force =     0.00157124   -0.00204284   -0.00204284
     atom   15 type  1   force =     0.00481994    0.00481994    0.00481994

     Total force =     0.048384     Total SCF correction =     0.000202
     Energy error            =      2.9E-03 Ry
     Gradient error          =      1.3E-02 Ry/Bohr

     number of scf cycles    =   2
     number of bfgs steps    =   1

     energy             old  =   -3807.9812640408 Ry
     energy             new  =   -3807.9841969654 Ry

     CASE: energy            _new < energy            _old


     WARNING: bfgs curvature condition failed, Theta= 0.935
     new trust radius        =       0.0297335330 bohr
     new conv_thr            =       0.0000001335 Ry


ATOMIC_POSITIONS (crystal)
Ni               0.0013430846        0.0013430846        0.0013430846
Fe               0.4974391996        0.0020280416        0.0020280416
Fe               0.0020280416        0.4974391996        0.0020280416
Fe               0.4983529043        0.4983529043        0.0022793217
Fe               0.0020280416        0.0020280416        0.4974391996
Fe               0.4983529043        0.0022793217        0.4983529043
Fe               0.0022793217        0.4983529043        0.4983529043
Fe               0.4969744534        0.4969744534        0.4969744534
Fe               0.7512572074        0.2496401522        0.2496401522
Fe               0.2496401522        0.7512572074        0.2496401522
Fe               0.7495891856        0.7495891856        0.2503073045
Fe               0.2496401522        0.2496401522        0.7512572074
Fe               0.7495891856        0.2503073045        0.7495891856
Fe               0.2503073045        0.7495891856        0.7495891856
Fe               0.7511788615        0.7511788615        0.7511788615



     Writing config-only to output data dir ./outdir/fe15_ni1_end.save/ :
     XML data file
     NEW-OLD atomic charge density approx. for the potential

     Check: negative core charge=   -0.000004

     negative rho (up, down):  0.000E+00 3.872E-03
     Generating pointlists ...

     total cpu time spent up to now is     1466.0 secs

     per-process dynamical memory:   178.6 Mb

     Self-consistent Calculation

     iteration #  1     ecut=    45.00 Ry     beta= 0.10
     Davidson diagonalization with overlap
     ethr =  1.00E-06,  avg # of iterations =  8.0

     negative rho (up, down):  0.000E+00 3.810E-03

     total cpu time spent up to now is     1524.1 secs

     total energy              =   -3807.98711042 Ry
     estimated scf accuracy    <       0.01013230 Ry

     total magnetization       =    36.58 Bohr mag/cell
     absolute magnetization    =    39.00 Bohr mag/cell

     iteration #  2     ecut=    45.00 Ry     beta= 0.10
     Davidson diagonalization with overlap
     ethr =  4.19E-06,  avg # of iterations =  2.0

     negative rho (up, down):  0.000E+00 3.811E-03

     total cpu time spent up to now is     1546.2 secs

     total energy              =   -3807.98605752 Ry
     estimated scf accuracy    <       0.06469979 Ry

     total magnetization       =    36.57 Bohr mag/cell
     absolute magnetization    =    39.09 Bohr mag/cell

     iteration #  3     ecut=    45.00 Ry     beta= 0.10
     Davidson diagonalization with overlap
     ethr =  4.19E-06,  avg # of iterations =  2.0

     negative rho (up, down):  0.000E+00 3.773E-03

     total cpu time spent up to now is     1568.0 secs

     total energy              =   -3807.98607635 Ry
     estimated scf accuracy    <       0.00955397 Ry

     total magnetization       =    36.57 Bohr mag/cell
     absolute magnetization    =    39.00 Bohr mag/cell

     iteration #  4     ecut=    45.00 Ry     beta= 0.10
     Davidson diagonalization with overlap
     ethr =  3.95E-06,  avg # of iterations =  1.5

     negative rho (up, down):  0.000E+00 3.684E-03

     total cpu time spent up to now is     1588.3 secs

     total energy              =   -3807.98629500 Ry
     estimated scf accuracy    <       0.00152484 Ry

     total magnetization       =    36.56 Bohr mag/cell
     absolute magnetization    =    38.99 Bohr mag/cell

     iteration #  5     ecut=    45.00 Ry     beta= 0.10
     Davidson diagonalization with overlap
     ethr =  6.30E-07,  avg # of iterations =  1.2

     negative rho (up, down):  0.000E+00 3.476E-03

     total cpu time spent up to now is     1607.7 secs

     total energy              =   -3807.98633106 Ry
     estimated scf accuracy    <       0.00042252 Ry

     total magnetization       =    36.55 Bohr mag/cell
     absolute magnetization    =    38.97 Bohr mag/cell

     iteration #  6     ecut=    45.00 Ry     beta= 0.10
     Davidson diagonalization with overlap
     ethr =  1.75E-07,  avg # of iterations =  2.2

     negative rho (up, down):  0.000E+00 3.434E-03

     total cpu time spent up to now is     1631.5 secs

     total energy              =   -3807.98650364 Ry
     estimated scf accuracy    <       0.00041968 Ry

     total magnetization       =    36.56 Bohr mag/cell
     absolute magnetization    =    38.98 Bohr mag/cell

     iteration #  7     ecut=    45.00 Ry     beta= 0.10
     Davidson diagonalization with overlap
     ethr =  1.73E-07,  avg # of iterations =  1.7

     negative rho (up, down):  0.000E+00 3.440E-03

     total cpu time spent up to now is     1651.9 secs

     total energy              =   -3807.98659413 Ry
     estimated scf accuracy    <       0.00000991 Ry

     total magnetization       =    36.55 Bohr mag/cell
     absolute magnetization    =    38.98 Bohr mag/cell

     iteration #  8     ecut=    45.00 Ry     beta= 0.10
     Davidson diagonalization with overlap
     ethr =  4.09E-09,  avg # of iterations =  4.7

     negative rho (up, down):  0.000E+00 3.441E-03

     total cpu time spent up to now is     1678.7 secs

     total energy              =   -3807.98667072 Ry
     estimated scf accuracy    <       0.00001292 Ry

     total magnetization       =    36.55 Bohr mag/cell
     absolute magnetization    =    38.97 Bohr mag/cell

     iteration #  9     ecut=    45.00 Ry     beta= 0.10
     Davidson diagonalization with overlap
     ethr =  4.09E-09,  avg # of iterations =  1.7

     negative rho (up, down):  0.000E+00 3.432E-03

     total cpu time spent up to now is     1700.0 secs

     total energy              =   -3807.98671835 Ry
     estimated scf accuracy    <       0.00000751 Ry

     total magnetization       =    36.55 Bohr mag/cell
     absolute magnetization    =    38.97 Bohr mag/cell

     iteration # 10     ecut=    45.00 Ry     beta= 0.10
     Davidson diagonalization with overlap
     ethr =  3.10E-09,  avg # of iterations =  1.7

     negative rho (up, down):  0.000E+00 3.432E-03

     total cpu time spent up to now is     1720.7 secs

     total energy              =   -3807.98675250 Ry
     estimated scf accuracy    <       0.00001273 Ry

     total magnetization       =    36.55 Bohr mag/cell
     absolute magnetization    =    38.97 Bohr mag/cell

     iteration # 11     ecut=    45.00 Ry     beta= 0.10
     Davidson diagonalization with overlap
     ethr =  3.10E-09,  avg # of iterations =  2.0

     negative rho (up, down):  0.000E+00 3.429E-03

     total cpu time spent up to now is     1742.7 secs

     total energy              =   -3807.98678954 Ry
     estimated scf accuracy    <       0.00000596 Ry

     total magnetization       =    36.55 Bohr mag/cell
     absolute magnetization    =    38.97 Bohr mag/cell

     iteration # 12     ecut=    45.00 Ry     beta= 0.10
     Davidson diagonalization with overlap
     ethr =  2.46E-09,  avg # of iterations =  1.0

     negative rho (up, down):  0.000E+00 3.416E-03

     total cpu time spent up to now is     1761.7 secs

     total energy              =   -3807.98681827 Ry
     estimated scf accuracy    <       0.00000397 Ry

     total magnetization       =    36.55 Bohr mag/cell
     absolute magnetization    =    38.97 Bohr mag/cell

     iteration # 13     ecut=    45.00 Ry     beta= 0.10
     Davidson diagonalization with overlap
     ethr =  1.64E-09,  avg # of iterations =  2.1

     negative rho (up, down):  0.000E+00 3.414E-03

     total cpu time spent up to now is     1785.4 secs

     total energy              =   -3807.98683266 Ry
     estimated scf accuracy    <       0.00002409 Ry

     total magnetization       =    36.55 Bohr mag/cell
     absolute magnetization    =    38.97 Bohr mag/cell

     iteration # 14     ecut=    45.00 Ry     beta= 0.10
     Davidson diagonalization with overlap
     ethr =  1.64E-09,  avg # of iterations =  2.0

     negative rho (up, down):  0.000E+00 3.411E-03

     total cpu time spent up to now is     1806.9 secs

     total energy              =   -3807.98684716 Ry
     estimated scf accuracy    <       0.00000522 Ry

     total magnetization       =    36.55 Bohr mag/cell
     absolute magnetization    =    38.97 Bohr mag/cell

     iteration # 15     ecut=    45.00 Ry     beta= 0.10
     Davidson diagonalization with overlap
     ethr =  1.64E-09,  avg # of iterations =  2.0

     negative rho (up, down):  0.000E+00 3.401E-03

     total cpu time spent up to now is     1828.2 secs

     total energy              =   -3807.98686278 Ry
     estimated scf accuracy    <       0.00000037 Ry

     total magnetization       =    36.55 Bohr mag/cell
     absolute magnetization    =    38.97 Bohr mag/cell

     iteration # 16     ecut=    45.00 Ry     beta= 0.10
     Davidson diagonalization with overlap
     ethr =  1.51E-10,  avg # of iterations =  3.4

     negative rho (up, down):  0.000E+00 3.399E-03

     total cpu time spent up to now is     1854.9 secs

     total energy              =   -3807.98686951 Ry
     estimated scf accuracy    <       0.00001948 Ry

     total magnetization       =    36.55 Bohr mag/cell
     absolute magnetization    =    38.97 Bohr mag/cell

     iteration # 17     ecut=    45.00 Ry     beta= 0.10
     Davidson diagonalization with overlap
     ethr =  1.51E-10,  avg # of iterations =  3.3

     negative rho (up, down):  0.000E+00 3.389E-03

     total cpu time spent up to now is     1881.0 secs

     total energy              =   -3807.98687952 Ry
     estimated scf accuracy    <       0.00000045 Ry

     total magnetization       =    36.55 Bohr mag/cell
     absolute magnetization    =    38.97 Bohr mag/cell

     iteration # 18     ecut=    45.00 Ry     beta= 0.10
     Davidson diagonalization with overlap
     ethr =  1.51E-10,  avg # of iterations =  2.8

     negative rho (up, down):  0.000E+00 3.385E-03

     total cpu time spent up to now is     1906.2 secs

     total energy              =   -3807.98689003 Ry
     estimated scf accuracy    <       0.00000473 Ry

     total magnetization       =    36.55 Bohr mag/cell
     absolute magnetization    =    38.97 Bohr mag/cell

     iteration # 19     ecut=    45.00 Ry     beta= 0.10
     Davidson diagonalization with overlap
     ethr =  1.51E-10,  avg # of iterations =  2.0

     negative rho (up, down):  0.000E+00 3.384E-03

     total cpu time spent up to now is     1928.8 secs

     total energy              =   -3807.98689755 Ry
     estimated scf accuracy    <       0.00000145 Ry

     total magnetization       =    36.55 Bohr mag/cell
     absolute magnetization    =    38.97 Bohr mag/cell

     iteration # 20     ecut=    45.00 Ry     beta= 0.10
     Davidson diagonalization with overlap
     ethr =  1.51E-10,  avg # of iterations =  1.0

     negative rho (up, down):  0.000E+00 3.381E-03

     total cpu time spent up to now is     1947.6 secs

     total energy              =   -3807.98690347 Ry
     estimated scf accuracy    <       0.00000109 Ry

     total magnetization       =    36.55 Bohr mag/cell
     absolute magnetization    =    38.97 Bohr mag/cell

     iteration # 21     ecut=    45.00 Ry     beta= 0.10
     Davidson diagonalization with overlap
     ethr =  1.51E-10,  avg # of iterations =  2.0

     negative rho (up, down):  0.000E+00 3.373E-03

     Magnetic moment per site  (integrated on atomic sphere of radius R)
     atom   1 (R=0.179)  charge= 16.6322  magn=  0.9495
     atom   2 (R=0.179)  charge= 14.3845  magn=  2.6033
     atom   3 (R=0.179)  charge= 14.3845  magn=  2.6033
     atom   4 (R=0.179)  charge= 14.3774  magn=  2.6573
     atom   5 (R=0.179)  charge= 14.3845  magn=  2.6033
     atom   6 (R=0.179)  charge= 14.3774  magn=  2.6573
     atom   7 (R=0.179)  charge= 14.3774  magn=  2.6573
     atom   8 (R=0.179)  charge= 14.3764  magn=  2.6730
     atom   9 (R=0.179)  charge= 14.4278  magn=  2.4962
     atom  10 (R=0.179)  charge= 14.4278  magn=  2.4962
     atom  11 (R=0.179)  charge= 14.4025  magn=  2.6296
     atom  12 (R=0.179)  charge= 14.4278  magn=  2.4962
     atom  13 (R=0.179)  charge= 14.4025  magn=  2.6296
     atom  14 (R=0.179)  charge= 14.4025  magn=  2.6296
     atom  15 (R=0.179)  charge= 14.3896  magn=  2.7096

     total cpu time spent up to now is     1970.4 secs

     End of self-consistent calculation

 ------ SPIN UP ------------


          k = 0.0000 0.0000 0.0000 (  6451 PWs)   bands (ev):

   -88.0467 -72.2601 -72.2368 -72.2274 -72.2274 -72.1924 -72.1924 -72.1831
   -72.1629 -72.0981 -72.0981 -72.0978 -71.9678 -71.9678 -71.9612 -48.2500
   -48.2500 -48.1408 -38.4053 -38.3686 -38.3686 -38.3244 -38.3244 -38.3198
   -38.2857 -38.2824 -38.2824 -38.2796 -38.2559 -38.2394 -38.2359 -38.2359
   -38.1852 -38.1852 -38.1804 -38.1585 -38.1585 -38.1250 -38.1250 -38.1187
   -38.1187 -38.1146 -38.1036 -38.0994 -38.0994 -38.0596 -38.0560 -38.0560
   -38.0503 -38.0503 -38.0460 -38.0250 -37.9548 -37.9548 -37.9175 -37.9175
   -37.8547 -37.8538 -37.8522 -37.8522   8.0592  11.3470  11.4098  11.4098
    11.4378  11.4816  11.4816  11.5286  11.5286  11.6538  11.7318  11.7318
    12.0208  12.0208  12.4818  12.7466  12.7542  12.7542  12.8063  12.8063
    12.8180  12.9366  12.9366  12.9704  13.1679  13.1679  13.2058  13.2263
    13.3514  13.3514  13.3938  13.7167  13.7167  13.8135  13.8135  13.8151
    14.0410  14.0410  14.0566  14.1597  14.1597  14.1653  14.1653  14.1765
    14.1991  14.5723  14.6013  14.6013  14.7162  14.8175  14.8175  14.8426
    14.8426  14.9924  15.0300  15.0355  15.0355  15.0970  15.0970  15.1399
    15.1399  15.1633  15.1633  15.1883  15.1883  15.2104  15.2278  15.5030
    15.6368  15.6368  16.0135  16.0135  16.0430  16.0430  16.1538  16.1538
    16.1703  16.1825  16.2938  16.2938  16.3325  16.5654  16.5654  16.5717
    16.6232

          k = 0.0000 0.0000 0.2500 (  6495 PWs)   bands (ev):

   -88.0468 -72.2591 -72.2364 -72.2296 -72.2275 -72.1925 -72.1914 -72.1836
   -72.1629 -72.0990 -72.0983 -72.0969 -71.9679 -71.9670 -71.9619 -48.2630
   -48.2586 -48.1515 -38.4058 -38.3709 -38.3690 -38.3267 -38.3254 -38.3187
   -38.2961 -38.2871 -38.2790 -38.2711 -38.2509 -38.2410 -38.2337 -38.2321
   -38.2068 -38.2011 -38.1852 -38.1720 -38.1518 -38.1422 -38.1327 -38.1311
   -38.1245 -38.1133 -38.0975 -38.0949 -38.0885 -38.0635 -38.0560 -38.0471
   -38.0448 -38.0325 -38.0301 -38.0170 -37.9676 -37.9629 -37.9162 -37.9135
   -37.8674 -37.8670 -37.8628 -37.8622   8.3562  10.5176  11.4589  11.4816
    11.5170  11.5642  11.5821  11.6006  11.6723  11.7522  11.8052  11.8260
    12.0824  12.1491  12.4844  12.6625  12.6974  12.7023  12.7269  12.7846
    12.8471  12.8589  12.9165  13.0772  13.0824  13.1564  13.2029  13.2570
    13.2666  13.5353  13.5509  13.6784  13.7222  13.7233  13.7756  13.7762
    13.8226  13.8507  13.9606  14.0844  14.0879  14.2562  14.3379  14.4032
    14.4151  14.4981  14.5177  14.5596  14.5774  14.6316  14.6770  14.7759
    14.8028  14.8729  14.9371  14.9712  15.0270  15.0383  15.0786  15.0796
    15.1174  15.1207  15.1409  15.1602  15.1739  15.1823  15.2170  15.2573
    15.3160  15.4833  15.5522  15.5785  15.6368  15.9118  16.0494  16.0759
    16.0964  16.1451  16.2710  16.2793  16.4419  16.6102  16.7837  16.8462
    17.0115

          k = 0.0000 0.0000-0.5000 (  6480 PWs)   bands (ev):

   -88.0468 -72.2579 -72.2355 -72.2323 -72.2275 -72.1924 -72.1901 -72.1845
   -72.1628 -72.0994 -72.0983 -72.0965 -71.9680 -71.9656 -71.9633 -48.2630
   -48.2539 -48.1487 -38.4013 -38.3642 -38.3566 -38.3269 -38.3151 -38.2990
   -38.2946 -38.2943 -38.2907 -38.2703 -38.2558 -38.2417 -38.2339 -38.2257
   -38.2221 -38.2204 -38.1933 -38.1875 -38.1515 -38.1504 -38.1405 -38.1350
   -38.1260 -38.1091 -38.0963 -38.0903 -38.0818 -38.0668 -38.0489 -38.0413
   -38.0413 -38.0164 -38.0152 -38.0055 -37.9766 -37.9640 -37.9098 -37.9002
   -37.8802 -37.8759 -37.8660 -37.8648   9.0751   9.4262  11.5602  11.5864
    11.6368  11.7071  11.7545  11.7667  11.8027  11.8979  11.9079  11.9970
    12.0263  12.1678  12.3055  12.3540  12.4520  12.6595  12.6697  12.6866
    12.9193  12.9271  13.1980  13.2066  13.2281  13.2529  13.2870  13.3960
    13.4284  13.4926  13.5434  13.5951  13.6227  13.6459  13.6732  13.7464
    13.7810  13.7819  13.8034  13.9085  13.9148  14.0766  14.1955  14.2240
    14.2974  14.3840  14.4130  14.4339  14.5471  14.5489  14.6832  14.6963
    14.7242  14.7540  14.7695  14.9482  15.0051  15.0320  15.0557  15.0781
    15.0834  15.1606  15.1665  15.1793  15.1843  15.1988  15.2129  15.2489
    15.4421  15.5734  15.6294  15.6892  15.6978  15.7407  15.7690  15.7997
    15.8471  16.2464  16.3846  16.4206  16.5084  16.6514  16.6916  16.7046
    16.7355

          k = 0.0000 0.2500 0.2500 (  6500 PWs)   bands (ev):

   -88.0468 -72.2581 -72.2356 -72.2311 -72.2283 -72.1922 -72.1902 -72.1847
   -72.1628 -72.0990 -72.0984 -72.0969 -71.9675 -71.9666 -71.9628 -48.2637
   -48.2579 -48.1551 -38.4036 -38.3667 -38.3616 -38.3215 -38.3181 -38.3120
   -38.3011 -38.2943 -38.2804 -38.2797 -38.2535 -38.2393 -38.2393 -38.2276
   -38.2224 -38.2047 -38.1845 -38.1688 -38.1512 -38.1384 -38.1341 -38.1337
   -38.1273 -38.1259 -38.1048 -38.1014 -38.0831 -38.0629 -38.0593 -38.0453
   -38.0411 -38.0336 -38.0293 -38.0000 -37.9681 -37.9657 -37.9088 -37.9010
   -37.8776 -37.8681 -37.8669 -37.8621   8.6541  10.6314  10.7753  11.4101
    11.6407  11.6849  11.6909  11.7274  11.7905  11.8776  11.9135  11.9565
    12.2089  12.2282  12.5293  12.5783  12.6108  12.6995  12.7996  12.8397
    12.8663  12.8967  12.9197  12.9527  13.0107  13.0191  13.1958  13.3120
    13.3511  13.3809  13.4780  13.5961  13.6049  13.6904  13.7071  13.7500
    13.7734  13.9202  13.9484  14.0586  14.1218  14.2331  14.2908  14.3151
    14.3732  14.3950  14.4184  14.4537  14.5159  14.5921  14.6071  14.6507
    14.6659  14.7694  14.7973  14.8404  14.9098  14.9895  15.0040  15.0317
    15.0598  15.0895  15.1160  15.1486  15.1763  15.2382  15.3058  15.3473
    15.3711  15.3824  15.4060  15.4772  15.5026  15.5318  15.5624  15.7001
    15.7769  15.8307  16.0802  16.5293  16.5559  17.5991  17.6689  17.8234
    17.9870

          k = 0.0000 0.2500-0.5000 (  6452 PWs)   bands (ev):

   -88.0467 -72.2570 -72.2350 -72.2325 -72.2287 -72.1920 -72.1894 -72.1852
   -72.1627 -72.0994 -72.0983 -72.0964 -71.9672 -71.9655 -71.9639 -48.2538
   -48.2475 -48.1412 -38.3973 -38.3581 -38.3506 -38.3261 -38.3145 -38.3027
   -38.2965 -38.2914 -38.2891 -38.2740 -38.2600 -38.2489 -38.2313 -38.2288
   -38.2226 -38.2098 -38.1844 -38.1691 -38.1486 -38.1414 -38.1320 -38.1288
   -38.1243 -38.1156 -38.1003 -38.0959 -38.0808 -38.0650 -38.0600 -38.0469
   -38.0447 -38.0301 -38.0258 -37.9869 -37.9732 -37.9653 -37.8998 -37.8910
   -37.8779 -37.8739 -37.8653 -37.8596   9.3488   9.6722  11.0094  11.2582
    11.7828  11.8761  11.9563  11.9659  11.9910  12.0134  12.0390  12.0981
    12.1384  12.2532  12.3714  12.3819  12.5260  12.6970  12.7578  12.7638
    12.9122  12.9617  13.0274  13.0725  13.1185  13.1478  13.2106  13.2724
    13.3404  13.4026  13.5144  13.5284  13.5479  13.6006  13.6339  13.6625
    13.6764  13.7334  13.7665  13.8443  13.9483  13.9889  14.0285  14.0981
    14.2020  14.2859  14.4445  14.4880  14.5217  14.5792  14.6689  14.6953
    14.7243  14.7540  14.7607  14.8004  14.8509  14.8816  14.9650  14.9909
    15.0374  15.0564  15.0998  15.1291  15.1517  15.2060  15.2221  15.2365
    15.2866  15.3191  15.3568  15.4028  15.4581  15.4677  15.4906  15.6831
    15.7758  15.9561  16.0872  17.0157  17.0886  17.1299  17.2342  18.7142
    18.8342

          k = 0.0000-0.5000-0.5000 (  6496 PWs)   bands (ev):

   -88.0468 -72.2561 -72.2342 -72.2334 -72.2299 -72.1919 -72.1882 -72.1866
   -72.1627 -72.0995 -72.0984 -72.0964 -71.9660 -71.9656 -71.9652 -48.2652
   -48.2572 -48.1516 -38.3953 -38.3554 -38.3413 -38.3290 -38.3164 -38.3102
   -38.3037 -38.2942 -38.2892 -38.2765 -38.2699 -38.2613 -38.2307 -38.2298
   -38.2199 -38.2083 -38.1816 -38.1491 -38.1399 -38.1397 -38.1375 -38.1249
   -38.1234 -38.1114 -38.1086 -38.1008 -38.0949 -38.0832 -38.0724 -38.0579
   -38.0553 -38.0364 -38.0326 -37.9778 -37.9748 -37.9700 -37.8941 -37.8836
   -37.8816 -37.8735 -37.8706 -37.8572  10.0404  10.1395  10.1421  10.7096
    12.0389  12.0506  12.0549  12.1468  12.1922  12.2250  12.2353  12.2413
    12.3099  12.3417  12.5201  12.5776  12.5939  12.6012  12.6986  12.7071
    12.8141  12.8466  12.8675  12.9231  12.9265  13.0189  13.0445  13.2612
    13.3327  13.3375  13.4159  13.4198  13.4787  13.5231  13.5367  13.6112
    13.6273  13.6509  13.6533  13.7058  13.7552  13.7637  13.9624  14.0507
    14.1203  14.2394  14.3390  14.4462  14.5970  14.6362  14.6570  14.6947
    14.7157  14.7190  14.7744  14.8153  14.8312  14.8589  14.8852  14.9072
    14.9225  14.9267  14.9562  15.0226  15.0606  15.0623  15.0987  15.1098
    15.1522  15.2092  15.2509  15.2805  15.3469  15.3807  15.4006  15.7122
    15.8178  16.0469  16.1940  17.7974  17.8586  17.9763  18.1147  18.2041
    18.2715

          k = 0.2500 0.2500 0.2500 (  6493 PWs)   bands (ev):

   -88.0468 -72.2572 -72.2345 -72.2310 -72.2310 -72.1902 -72.1902 -72.1863
   -72.1628 -72.0983 -72.0983 -72.0976 -71.9666 -71.9666 -71.9637 -48.2606
   -48.2606 -48.1510 -38.4007 -38.3565 -38.3565 -38.3130 -38.3130 -38.3068
   -38.3038 -38.3023 -38.2807 -38.2807 -38.2577 -38.2393 -38.2393 -38.2293
   -38.2293 -38.2139 -38.1771 -38.1630 -38.1630 -38.1333 -38.1333 -38.1298
   -38.1263 -38.1263 -38.1229 -38.0886 -38.0886 -38.0625 -38.0614 -38.0614
   -38.0310 -38.0299 -38.0299 -37.9964 -37.9683 -37.9683 -37.8968 -37.8968
   -37.8828 -37.8685 -37.8653 -37.8653   8.9450  10.8491  10.8491  11.0303
    11.6042  11.6042  11.6846  11.8916  11.8916  11.9870  12.0784  12.0784
    12.3744  12.3744  12.5472  12.5897  12.5922  12.7421  12.7421  12.8538
    12.8538  12.8951  12.9475  12.9695  12.9695  13.1198  13.1198  13.2283
    13.3244  13.3244  13.3508  13.4763  13.4763  13.5757  13.5757  13.6628
    13.6628  13.7438  13.7891  13.9308  13.9308  14.0289  14.1840  14.1840
    14.2774  14.2774  14.3515  14.5431  14.5763  14.5763  14.6002  14.7495
    14.7495  14.7765  14.8313  14.8515  14.8515  14.9296  14.9496  14.9496
    15.0678  15.0678  15.0777  15.1287  15.1287  15.1722  15.1905  15.1905
    15.2573  15.3267  15.3267  15.5666  15.5666  15.5812  15.6923  15.6923
    15.7254  15.7254  15.8503  16.5757  16.5757  16.6543  18.5239  18.5239
    18.7439

          k = 0.2500 0.2500-0.5000 (  6456 PWs)   bands (ev):

   -88.0467 -72.2562 -72.2347 -72.2318 -72.2308 -72.1902 -72.1901 -72.1862
   -72.1626 -72.0990 -72.0983 -72.0968 -71.9665 -71.9656 -71.9645 -48.2551
   -48.2494 -48.1410 -38.3942 -38.3519 -38.3461 -38.3212 -38.3127 -38.3043
   -38.3003 -38.2907 -38.2853 -38.2760 -38.2599 -38.2477 -38.2435 -38.2246
   -38.2238 -38.2053 -38.1770 -38.1690 -38.1521 -38.1468 -38.1300 -38.1272
   -38.1210 -38.1180 -38.1121 -38.1006 -38.0980 -38.0663 -38.0569 -38.0492
   -38.0346 -38.0300 -38.0221 -37.9892 -37.9763 -37.9664 -37.8979 -37.8910
   -37.8801 -37.8733 -37.8639 -37.8606   9.6252   9.9250  11.2455  11.2511
    11.3838  11.5966  12.1005  12.1487  12.1526  12.1633  12.1850  12.1964
    12.2334  12.3623  12.3765  12.4842  12.6225  12.7239  12.7766  12.8578
    12.9283  12.9501  12.9666  13.0238  13.0621  13.1211  13.1450  13.1673
    13.2130  13.2793  13.4018  13.4182  13.4432  13.4622  13.4737  13.4909
    13.5202  13.5375  13.5403  13.5798  13.7483  13.8645  13.8778  13.9728
    14.0208  14.2180  14.3779  14.4064  14.6118  14.6571  14.7026  14.7168
    14.7602  14.7674  14.8099  14.8333  14.8617  14.9245  14.9748  15.0196
    15.0334  15.0887  15.1068  15.1329  15.1373  15.1768  15.1826  15.2139
    15.2338  15.3448  15.3736  15.3944  15.4958  15.6889  15.7157  15.7640
    15.8283  15.8795  15.9019  16.0077  16.0115  17.6773  17.9668  19.2208
    19.2280

          k = 0.2500-0.5000-0.5000 (  6472 PWs)   bands (ev):

   -88.0467 -72.2554 -72.2340 -72.2335 -72.2305 -72.1912 -72.1883 -72.1873
   -72.1626 -72.0991 -72.0983 -72.0968 -71.9661 -71.9653 -71.9652 -48.2554
   -48.2548 -48.1460 -38.3895 -38.3452 -38.3362 -38.3235 -38.3137 -38.3065
   -38.3034 -38.2870 -38.2826 -38.2730 -38.2626 -38.2585 -38.2418 -38.2239
   -38.2177 -38.2068 -38.1704 -38.1566 -38.1540 -38.1441 -38.1423 -38.1345
   -38.1342 -38.1274 -38.1228 -38.1064 -38.1033 -38.0578 -38.0505 -38.0500
   -38.0334 -38.0255 -38.0242 -37.9847 -37.9780 -37.9743 -37.8951 -37.8892
   -37.8882 -37.8746 -37.8666 -37.8626  10.3014  10.4094  10.4116  10.9130
    11.7275  11.8910  11.9112  12.2377  12.2474  12.2566  12.2594  12.5121
    12.5456  12.5587  12.5739  12.6478  12.6567  12.7053  12.7427  12.7522
    12.7862  12.8849  12.8902  12.9044  12.9535  12.9843  13.0033  13.1286
    13.1719  13.1859  13.1981  13.2082  13.2592  13.2986  13.3398  13.3670
    13.3926  13.4034  13.4359  13.5065  13.5427  13.6013  13.6559  13.6938
    13.8473  14.2416  14.2517  14.2847  14.7118  14.7343  14.7826  14.8567
    14.8824  14.8918  14.9245  14.9398  14.9697  14.9956  15.0287  15.0336
    15.0485  15.0813  15.0935  15.1150  15.1197  15.1388  15.1683  15.2258
    15.2297  15.2596  15.2844  15.3588  15.4116  15.4215  15.4356  15.6262
    15.6869  15.8099  15.9263  16.6403  16.7403  16.7531  16.9642  20.1482
    20.2927

          k =-0.5000-0.5000-0.5000 (  6488 PWs)   bands (ev):

   -88.0467 -72.2547 -72.2339 -72.2339 -72.2311 -72.1899 -72.1885 -72.1885
   -72.1624 -72.0983 -72.0983 -72.0975 -71.9662 -71.9651 -71.9651 -48.2572
   -48.2572 -48.1480 -38.3840 -38.3295 -38.3295 -38.3243 -38.3099 -38.3099
   -38.3045 -38.2740 -38.2740 -38.2710 -38.2589 -38.2529 -38.2529 -38.2189
   -38.2189 -38.2111 -38.1633 -38.1633 -38.1574 -38.1538 -38.1512 -38.1512
   -38.1470 -38.1334 -38.1334 -38.1076 -38.1076 -38.0443 -38.0346 -38.0346
   -38.0263 -38.0192 -38.0192 -37.9901 -37.9847 -37.9847 -37.8944 -37.8932
   -37.8932 -37.8801 -37.8699 -37.8699  10.9090  11.0460  11.0557  11.0557
    11.2002  11.2231  11.2231  12.1807  12.6329  12.6329  12.6655  12.6709
    12.6709  12.6784  12.6792  12.6792  12.7194  12.7194  12.7449  12.8287
    12.8745  12.8745  12.9173  12.9173  13.0065  13.0065  13.0282  13.0560
    13.0560  13.0668  13.0722  13.0949  13.0949  13.1080  13.1080  13.1100
    13.1354  13.1588  13.1588  13.1602  13.1602  13.1662  13.2675  13.6884
    13.6884  14.1826  14.2173  14.2173  14.7559  14.7559  14.9122  14.9172
    14.9172  14.9585  14.9585  14.9833  15.0080  15.0080  15.0589  15.0627
    15.0707  15.0707  15.1630  15.1630  15.2974  15.3145  15.3145  15.3688
    15.4054  15.4054  15.4390  15.4390  15.4839  15.5091  15.5091  15.7300
    15.7300  15.7763  15.9361  16.0314  16.0436  16.0436  16.0549  22.4954
    22.4954

          k =-0.2500 0.0000 0.2500 (  6500 PWs)   bands (ev):

   -88.0468 -72.2581 -72.2363 -72.2298 -72.2287 -72.1921 -72.1912 -72.1840
   -72.1628 -72.0994 -72.0983 -72.0965 -71.9674 -71.9670 -71.9625 -48.2648
   -48.2614 -48.1503 -38.4017 -38.3649 -38.3637 -38.3282 -38.3232 -38.3084
   -38.2998 -38.2933 -38.2806 -38.2730 -38.2545 -38.2445 -38.2371 -38.2329
   -38.2207 -38.2111 -38.1889 -38.1583 -38.1501 -38.1417 -38.1321 -38.1274
   -38.1207 -38.1132 -38.1036 -38.1023 -38.0834 -38.0646 -38.0608 -38.0531
   -38.0433 -38.0389 -38.0301 -38.0011 -37.9710 -37.9659 -37.9126 -37.9040
   -37.8733 -37.8696 -37.8642 -37.8568   8.6543  10.5997  10.8109  11.4035
    11.6432  11.6834  11.7054  11.7536  11.7574  11.8912  11.8983  11.9526
    12.1945  12.2266  12.5320  12.5863  12.6039  12.7053  12.7820  12.8451
    12.8636  12.8892  12.9306  12.9811  13.0091  13.0209  13.1918  13.3257
    13.3577  13.4036  13.4958  13.5227  13.6659  13.6695  13.7075  13.7393
    13.7650  13.9010  13.9379  14.0663  14.1039  14.2057  14.3360  14.3438
    14.3822  14.3969  14.4389  14.4630  14.4864  14.5492  14.5857  14.6278
    14.6725  14.7832  14.8383  14.8876  14.9172  14.9500  15.0157  15.0571
    15.0894  15.1032  15.1275  15.1458  15.1526  15.2041  15.2788  15.3318
    15.3397  15.4018  15.4496  15.4825  15.5045  15.5248  15.6009  15.6078
    15.7277  15.7487  16.2178  16.5328  16.5671  17.5001  17.6725  17.8320
    18.0696

          k = 0.2500-0.2500 0.2500 (  6493 PWs)   bands (ev):

   -88.0468 -72.2572 -72.2359 -72.2310 -72.2290 -72.1922 -72.1902 -72.1848
   -72.1627 -72.0994 -72.0983 -72.0965 -71.9671 -71.9666 -71.9632 -48.2606
   -48.2602 -48.1513 -38.3978 -38.3591 -38.3551 -38.3261 -38.3169 -38.3026
   -38.2993 -38.2952 -38.2815 -38.2815 -38.2579 -38.2455 -38.2409 -38.2339
   -38.2250 -38.2019 -38.1863 -38.1583 -38.1545 -38.1407 -38.1368 -38.1301
   -38.1283 -38.1194 -38.1193 -38.0944 -38.0911 -38.0606 -38.0581 -38.0515
   -38.0335 -38.0316 -38.0298 -37.9981 -37.9720 -37.9676 -37.9080 -37.8951
   -37.8775 -37.8732 -37.8626 -37.8611   8.9455  10.8047  10.8495  11.0799
    11.5675  11.5941  11.7420  11.8767  11.9079  12.0118  12.0612  12.0742
    12.3541  12.3687  12.5408  12.5691  12.5960  12.7537  12.7622  12.8468
    12.8646  12.8931  12.9259  12.9950  12.9991  13.1071  13.1093  13.2422
    13.3143  13.3354  13.3490  13.4579  13.5024  13.5686  13.5723  13.6833
    13.6973  13.7334  13.7621  13.9273  13.9741  14.0399  14.1475  14.1844
    14.2344  14.2490  14.3884  14.4422  14.4876  14.5472  14.5963  14.7178
    14.7547  14.7847  14.8277  14.8894  14.9225  14.9602  14.9973  15.0083
    15.0481  15.0542  15.0783  15.1119  15.1133  15.1247  15.1645  15.1927
    15.3400  15.3645  15.3905  15.5061  15.5642  15.5664  15.5911  15.6872
    15.7447  15.8521  15.8548  16.5552  16.5560  16.6728  18.4694  18.5243
    18.8003

          k = 0.2500-0.2500-0.5000 (  6456 PWs)   bands (ev):

   -88.0467 -72.2563 -72.2349 -72.2331 -72.2290 -72.1922 -72.1890 -72.1857
   -72.1626 -72.0994 -72.0983 -72.0964 -71.9670 -71.9654 -71.9642 -48.2513
   -48.2507 -48.1436 -38.3933 -38.3515 -38.3463 -38.3266 -38.3126 -38.3024
   -38.2985 -38.2923 -38.2856 -38.2735 -38.2586 -38.2474 -38.2417 -38.2271
   -38.2244 -38.2025 -38.1731 -38.1687 -38.1530 -38.1451 -38.1344 -38.1311
   -38.1273 -38.1225 -38.1203 -38.1008 -38.0892 -38.0659 -38.0545 -38.0446
   -38.0325 -38.0292 -38.0151 -37.9895 -37.9741 -37.9709 -37.8976 -37.8910
   -37.8814 -37.8736 -37.8653 -37.8622   9.6247   9.9262  11.2076  11.2882
    11.3580  11.6345  12.0864  12.1459  12.1510  12.1728  12.1951  12.2091
    12.2200  12.3587  12.3855  12.4812  12.6232  12.7426  12.7583  12.8551
    12.9069  12.9371  12.9785  13.0291  13.0506  13.1286  13.1496  13.1761
    13.2539  13.3042  13.4049  13.4155  13.4356  13.4433  13.4717  13.4937
    13.5094  13.5321  13.5349  13.5473  13.7531  13.8576  13.8937  13.9746
    14.0050  14.2241  14.3678  14.4063  14.5892  14.6331  14.6644  14.7286
    14.7423  14.7792  14.7931  14.8300  14.8597  14.9254  14.9760  15.0247
    15.0459  15.0570  15.1030  15.1509  15.1609  15.1774  15.1902  15.2254
    15.2372  15.3438  15.4161  15.4343  15.5138  15.5973  15.7303  15.8290
    15.8477  15.8754  15.9129  15.9995  16.0187  17.6534  17.9432  19.1635
    19.2345

 ------ SPIN DOWN ----------


          k = 0.0000 0.0000 0.0000 (  6451 PWs)   bands (ev):

   -86.7162 -68.9509 -68.9307 -68.9307 -68.8783 -68.8636 -68.8636 -68.8524
   -68.8499 -68.8480 -68.8480 -68.8387 -68.8387 -68.8207 -68.7969 -46.9116
   -46.9116 -46.8369 -35.2110 -35.1997 -35.1997 -35.1711 -35.1529 -35.1529
   -35.0813 -35.0813 -35.0785 -35.0223 -35.0210 -35.0210 -35.0076 -35.0076
   -35.0019 -35.0019 -35.0003 -34.9969 -34.9775 -34.9775 -34.9652 -34.9632
   -34.9632 -34.9608 -34.9486 -34.9431 -34.9355 -34.9355 -34.9257 -34.9257
   -34.9145 -34.9145 -34.8908 -34.8318 -34.8118 -34.8118 -34.8060 -34.8060
   -34.7948 -34.7879 -34.7879 -34.7818   8.1989  12.1619  12.2132  12.2132
    12.3303  12.3303  12.4504  12.9032  12.9032  12.9787  12.9998  12.9998
    13.6985  13.7058  13.7058  14.3131  14.3131  14.4228  14.7221  14.7221
    14.7441  14.8930  14.8930  14.9777  15.1863  15.1863  15.3277  15.4108
    15.4108  15.6744  15.7160  15.8938  15.9996  15.9996  16.2781  16.2781
    16.3812  16.3812  16.4551  16.4890  16.5148  16.5148  16.5384  16.5718
    16.5718  16.6781  16.6781  16.7546  17.0126  17.0126  17.1134  17.2522
    17.2522  17.3135  17.3135  17.3443  17.4985  17.4985  17.6004  17.9416
    18.0175  18.0175  18.0719  18.0983  18.0983  18.2345  18.2345  18.3645
    18.3645  18.3881  18.3892  18.3920  18.3920  18.4465  18.5817  18.5817
    18.7779  18.7779  18.8310  18.8310  18.8876  18.8876  18.9222  18.9775
    19.0697

          k = 0.0000 0.0000 0.2500 (  6495 PWs)   bands (ev):

   -86.7162 -68.9481 -68.9331 -68.9307 -68.8778 -68.8682 -68.8634 -68.8541
   -68.8502 -68.8483 -68.8473 -68.8388 -68.8324 -68.8198 -68.7990 -46.9244
   -46.9201 -46.8474 -35.2045 -35.1940 -35.1926 -35.1630 -35.1525 -35.1511
   -35.0928 -35.0919 -35.0798 -35.0671 -35.0637 -35.0532 -35.0405 -35.0223
   -35.0212 -35.0053 -34.9840 -34.9806 -34.9781 -34.9687 -34.9586 -34.9542
   -34.9403 -34.9350 -34.9311 -34.9294 -34.9182 -34.9124 -34.9112 -34.9065
   -34.9044 -34.8945 -34.8853 -34.8405 -34.8285 -34.8224 -34.8185 -34.8173
   -34.8147 -34.8081 -34.8062 -34.8006   8.5000  10.7819  12.3668  12.3890
    12.4875  12.5142  12.9124  12.9341  12.9732  12.9799  13.1759  13.3035
    13.7186  13.8337  13.8810  14.2242  14.3280  14.3887  14.5389  14.7883
    14.7955  14.8646  14.9113  15.0141  15.0507  15.0723  15.3383  15.3418
    15.4164  15.4945  15.6252  15.8095  15.8647  15.8977  15.9943  16.0659
    16.0894  16.1373  16.1682  16.2065  16.2601  16.3104  16.3571  16.4976
    16.5423  16.6274  16.7690  16.7753  16.8819  16.9111  17.0685  17.1957
    17.2049  17.2848  17.3758  17.6445  17.6970  17.7336  17.8178  17.8910
    17.9168  17.9760  18.0506  18.0842  18.1505  18.1693  18.2886  18.3395
    18.3609  18.3815  18.3963  18.4927  18.5251  18.6189  18.6373  18.6815
    18.7198  18.7429  18.8367  18.8440  18.8632  18.9065  18.9453  18.9472
    18.9785

          k = 0.0000 0.0000-0.5000 (  6480 PWs)   bands (ev):

   -86.7163 -68.9435 -68.9374 -68.9307 -68.8765 -68.8731 -68.8632 -68.8546
   -68.8503 -68.8485 -68.8472 -68.8389 -68.8282 -68.8174 -68.8022 -46.9244
   -46.9157 -46.8445 -35.1617 -35.1585 -35.1567 -35.1524 -35.1495 -35.1402
   -35.1382 -35.1264 -35.1133 -35.0961 -35.0881 -35.0734 -35.0550 -35.0317
   -35.0234 -35.0107 -34.9954 -34.9874 -34.9825 -34.9697 -34.9635 -34.9538
   -34.9363 -34.9170 -34.9079 -34.9075 -34.8999 -34.8977 -34.8906 -34.8794
   -34.8739 -34.8714 -34.8614 -34.8451 -34.8396 -34.8321 -34.8297 -34.8277
   -34.8260 -34.8219 -34.8213 -34.8197   9.2316   9.5979  12.5687  12.6402
    12.6592  12.7399  12.8567  12.8602  12.9306  13.1710  13.5049  13.5938
    13.7248  13.9721  14.0050  14.0406  14.0789  14.3139  14.4605  14.5873
    14.8127  14.8342  14.9434  15.0630  15.1766  15.2907  15.4005  15.4361
    15.4382  15.4610  15.4785  15.4810  15.5108  15.5114  15.5782  15.7620
    15.8465  15.8684  15.9340  15.9447  16.0519  16.1617  16.2687  16.2818
    16.3481  16.5116  16.6834  16.9680  17.0788  17.2670  17.3586  17.4070
    17.4665  17.4866  17.5767  17.6394  17.6668  17.7938  17.7953  17.8307
    17.8951  17.9191  18.0390  18.2276  18.2368  18.3175  18.3267  18.3455
    18.3621  18.3732  18.4019  18.4112  18.4922  18.5299  18.5687  18.5773
    18.6312  18.7102  18.7758  18.8030  18.8294  18.9396  19.0058  19.0304
    19.0444

          k = 0.0000 0.2500 0.2500 (  6500 PWs)   bands (ev):

   -86.7162 -68.9454 -68.9344 -68.9317 -68.8775 -68.8673 -68.8668 -68.8565
   -68.8513 -68.8513 -68.8437 -68.8360 -68.8282 -68.8207 -68.8007 -46.9250
   -46.9193 -46.8509 -35.1967 -35.1793 -35.1699 -35.1513 -35.1452 -35.1434
   -35.1217 -35.1131 -35.1037 -35.0863 -35.0705 -35.0511 -35.0418 -35.0204
   -35.0062 -35.0042 -35.0017 -34.9832 -34.9803 -34.9733 -34.9687 -34.9580
   -34.9514 -34.9499 -34.9368 -34.9300 -34.9107 -34.9065 -34.8947 -34.8919
   -34.8846 -34.8628 -34.8625 -34.8517 -34.8378 -34.8279 -34.8267 -34.8227
   -34.8186 -34.8159 -34.8015 -34.7987   8.8014  10.9515  11.0847  12.4091
    12.6216  12.6331  13.0497  13.1471  13.1918  13.2385  13.3789  13.4934
    13.8214  13.8879  14.0577  14.1836  14.3332  14.3649  14.5401  14.6884
    14.7916  14.8181  14.8848  14.9341  15.0322  15.0484  15.1352  15.2430
    15.3750  15.4854  15.4873  15.6460  15.6914  15.7442  15.7700  15.8433
    15.8967  15.9228  16.0176  16.1212  16.1543  16.1980  16.2105  16.3702
    16.4791  16.6078  16.6682  16.8330  16.9461  17.1110  17.1237  17.1589
    17.3056  17.3241  17.4093  17.5220  17.6095  17.7365  17.8395  17.9649
    17.9967  18.0538  18.0775  18.1135  18.1400  18.1883  18.2217  18.2674
    18.2741  18.3486  18.3832  18.3858  18.4282  18.4289  18.4709  18.5427
    18.5624  18.7030  18.8555  18.9942  19.0358  19.5193  19.6294  19.7116
    19.7208

          k = 0.0000 0.2500-0.5000 (  6452 PWs)   bands (ev):

   -86.7162 -68.9416 -68.9370 -68.9322 -68.8758 -68.8725 -68.8659 -68.8575
   -68.8526 -68.8514 -68.8423 -68.8344 -68.8261 -68.8189 -68.8032 -46.9153
   -46.9093 -46.8372 -35.1676 -35.1617 -35.1545 -35.1511 -35.1474 -35.1417
   -35.1356 -35.1160 -35.1063 -35.0784 -35.0765 -35.0585 -35.0453 -35.0371
   -35.0231 -35.0009 -34.9979 -34.9865 -34.9799 -34.9762 -34.9729 -34.9606
   -34.9408 -34.9391 -34.9333 -34.9216 -34.9159 -34.9037 -34.8932 -34.8796
   -34.8678 -34.8569 -34.8474 -34.8384 -34.8364 -34.8313 -34.8288 -34.8256
   -34.8159 -34.8134 -34.8091 -34.8044   9.5165   9.8615  11.4971  11.8555
    12.8307  12.9193  13.0849  13.2103  13.4833  13.5410  13.6093  13.6701
    13.8129  13.9684  14.0305  14.0809  14.1784  14.3780  14.4678  14.6263
    14.7211  14.8265  14.8808  14.9915  15.0364  15.0824  15.1951  15.2382
    15.2683  15.3072  15.4146  15.4637  15.4867  15.5390  15.5998  15.6546
    15.7086  15.7643  15.8427  15.8770  16.0085  16.0293  16.1006  16.3919
    16.4199  16.4826  16.8194  16.9064  16.9974  17.1235  17.2531  17.4026
    17.4330  17.4830  17.5316  17.5524  17.5764  17.6499  17.7232  17.8356
    17.8904  17.9378  18.0132  18.0655  18.1370  18.2260  18.2353  18.2699
    18.3103  18.3322  18.3743  18.3823  18.4107  18.4194  18.4454  18.5478
    18.6427  18.7375  18.8536  19.2797  19.3102  19.3309  19.3971  20.2251
    20.3844

          k = 0.0000-0.5000-0.5000 (  6496 PWs)   bands (ev):

   -86.7163 -68.9380 -68.9373 -68.9348 -68.8748 -68.8708 -68.8699 -68.8609
   -68.8531 -68.8521 -68.8405 -68.8299 -68.8240 -68.8212 -68.8044 -46.9266
   -46.9186 -46.8474 -35.1695 -35.1585 -35.1558 -35.1553 -35.1532 -35.1470
   -35.1353 -35.1153 -35.1044 -35.0651 -35.0584 -35.0527 -35.0198 -35.0193
   -35.0152 -35.0049 -35.0004 -34.9956 -34.9909 -34.9885 -34.9828 -34.9758
   -34.9677 -34.9662 -34.9494 -34.9484 -34.9388 -34.9080 -34.8828 -34.8761
   -34.8662 -34.8571 -34.8470 -34.8379 -34.8370 -34.8303 -34.8298 -34.8287
   -34.8110 -34.8043 -34.8029 -34.7965  10.2464  10.3831  10.4190  11.0194
    13.2563  13.2691  13.3084  13.4605  13.5049  13.5972  13.6765  13.7581
    13.9166  13.9643  14.0338  14.1205  14.3972  14.4138  14.4481  14.4918
    14.6754  14.6856  14.7521  14.7795  14.8464  14.9955  15.0299  15.0861
    15.2328  15.2633  15.3226  15.3618  15.3619  15.4407  15.5301  15.5784
    15.6154  15.6623  15.7553  15.9559  15.9735  16.0127  16.0644  16.3817
    16.4084  16.6081  16.6129  16.8553  16.9089  16.9766  17.1620  17.2543
    17.2754  17.4506  17.5884  17.6366  17.6923  17.7332  17.7788  17.7942
    17.8215  17.8720  17.9167  17.9636  18.0326  18.1062  18.1244  18.1977
    18.2142  18.2724  18.2881  18.2884  18.3336  18.3934  18.4238  18.5946
    18.7470  18.8082  18.9865  19.7678  19.8743  20.0918  20.1265  20.1606
    20.2529

          k = 0.2500 0.2500 0.2500 (  6493 PWs)   bands (ev):

   -86.7163 -68.9426 -68.9342 -68.9342 -68.8772 -68.8680 -68.8680 -68.8588
   -68.8510 -68.8510 -68.8459 -68.8280 -68.8280 -68.8229 -68.8019 -46.9220
   -46.9220 -46.8469 -35.1854 -35.1547 -35.1547 -35.1417 -35.1417 -35.1408
   -35.1272 -35.1264 -35.1264 -35.0678 -35.0678 -35.0527 -35.0527 -35.0381
   -35.0331 -35.0160 -34.9955 -34.9955 -34.9790 -34.9790 -34.9736 -34.9422
   -34.9422 -34.9362 -34.9248 -34.9248 -34.9154 -34.9154 -34.9143 -34.8994
   -34.8773 -34.8519 -34.8487 -34.8487 -34.8310 -34.8281 -34.8281 -34.8206
   -34.8206 -34.8105 -34.8105 -34.8044   9.0960  11.1993  11.1993  11.3836
    12.6075  12.6075  12.7888  13.4146  13.4146  13.5177  13.6491  13.6491
    14.0390  14.0390  14.0707  14.1381  14.3835  14.3835  14.4005  14.7426
    14.7670  14.7670  14.8507  14.8507  15.0570  15.0580  15.0580  15.0607
    15.3825  15.3825  15.4441  15.4782  15.4782  15.6373  15.6373  15.6556
    15.6766  15.7448  15.7448  16.0137  16.0137  16.0651  16.0651  16.2385
    16.4913  16.6543  16.6543  16.9910  17.1500  17.1500  17.2376  17.2376
    17.3071  17.3294  17.5214  17.5623  17.5623  17.8042  17.8279  17.8279
    17.9305  18.0375  18.0375  18.1403  18.2077  18.2077  18.2504  18.2504
    18.2939  18.2939  18.3200  18.3672  18.3672  18.4853  18.4853  18.5495
    18.5862  18.5862  18.6471  18.9863  18.9863  19.0189  20.2478  20.2478
    20.3956

          k = 0.2500 0.2500-0.5000 (  6456 PWs)   bands (ev):

   -86.7162 -68.9399 -68.9362 -68.9339 -68.8757 -68.8729 -68.8686 -68.8582
   -68.8517 -68.8507 -68.8447 -68.8279 -68.8274 -68.8201 -68.8036 -46.9166
   -46.9110 -46.8372 -35.1632 -35.1606 -35.1577 -35.1461 -35.1356 -35.1325
   -35.1165 -35.1157 -35.1039 -35.0802 -35.0713 -35.0565 -35.0487 -35.0342
   -35.0253 -35.0208 -35.0160 -35.0034 -34.9900 -34.9855 -34.9838 -34.9482
   -34.9476 -34.9425 -34.9275 -34.9149 -34.9031 -34.9026 -34.8903 -34.8825
   -34.8754 -34.8538 -34.8529 -34.8444 -34.8320 -34.8274 -34.8232 -34.8230
   -34.8157 -34.8148 -34.8107 -34.8063   9.8009  10.1265  11.7470  11.7491
    11.9662  12.2388  13.1537  13.5582  13.6171  13.7019  13.7453  13.7899
    13.9491  14.0370  14.1388  14.2647  14.2956  14.3860  14.5530  14.6327
    14.6581  14.8561  14.8617  14.9074  14.9886  14.9989  15.0868  15.1171
    15.1577  15.1990  15.3459  15.3881  15.3903  15.4975  15.4995  15.5597
    15.5673  15.6600  15.7080  15.8226  15.8502  15.8937  15.9041  16.1956
    16.3999  16.5330  16.7360  16.8307  17.0065  17.0990  17.3420  17.3843
    17.4586  17.5781  17.6492  17.6657  17.7258  17.7374  17.8393  17.9063
    17.9612  17.9881  18.0809  18.1455  18.1464  18.1841  18.2307  18.2747
    18.2860  18.3106  18.3279  18.3603  18.3618  18.4284  18.4637  18.4707
    18.5580  18.5665  18.6073  18.6604  18.7047  19.7913  20.0483  20.7868
    20.8247

          k = 0.2500-0.5000-0.5000 (  6472 PWs)   bands (ev):

   -86.7162 -68.9374 -68.9371 -68.9343 -68.8754 -68.8730 -68.8721 -68.8579
   -68.8524 -68.8503 -68.8436 -68.8295 -68.8227 -68.8213 -68.8045 -46.9170
   -46.9163 -46.8420 -35.1549 -35.1465 -35.1459 -35.1387 -35.1370 -35.1315
   -35.1180 -35.1080 -35.0990 -35.0652 -35.0594 -35.0541 -35.0487 -35.0473
   -35.0434 -35.0363 -35.0338 -35.0303 -35.0053 -34.9922 -34.9876 -34.9444
   -34.9381 -34.9363 -34.9186 -34.9146 -34.9135 -34.8976 -34.8829 -34.8827
   -34.8676 -34.8568 -34.8493 -34.8470 -34.8347 -34.8311 -34.8297 -34.8253
   -34.8180 -34.8155 -34.8146 -34.8100  10.5149  10.6564  10.6961  11.2298
    12.3141  12.5038  12.5284  13.1997  13.8068  13.9393  14.0081  14.0500
    14.0820  14.1841  14.2482  14.3568  14.4593  14.4760  14.5187  14.5819
    14.6418  14.7334  14.7882  14.8416  14.8716  14.9778  15.0012  15.0752
    15.1608  15.2034  15.2556  15.2639  15.2851  15.3706  15.3904  15.4567
    15.4569  15.6190  15.6355  15.7286  15.7366  15.7731  15.7800  15.8547
    16.0466  16.6036  16.6427  16.7034  17.1095  17.1521  17.4540  17.4708
    17.6295  17.7410  17.7723  17.7811  17.8679  17.8865  17.9000  17.9192
    17.9367  17.9619  18.0005  18.0422  18.0679  18.1165  18.1693  18.1750
    18.1879  18.2251  18.2788  18.2800  18.3008  18.3280  18.3598  18.4632
    18.5255  18.5785  18.6428  19.0669  19.1408  19.1446  19.2938  21.6643
    21.8245

          k =-0.5000-0.5000-0.5000 (  6488 PWs)   bands (ev):

   -86.7162 -68.9369 -68.9369 -68.9338 -68.8766 -68.8740 -68.8740 -68.8555
   -68.8495 -68.8487 -68.8487 -68.8291 -68.8214 -68.8214 -68.8046 -46.9186
   -46.9186 -46.8440 -35.1286 -35.1286 -35.1199 -35.1146 -35.1146 -35.1126
   -35.0979 -35.0933 -35.0933 -35.0864 -35.0864 -35.0796 -35.0720 -35.0720
   -35.0677 -35.0548 -35.0541 -35.0541 -35.0146 -34.9885 -34.9885 -34.9366
   -34.9366 -34.9207 -34.8864 -34.8864 -34.8856 -34.8852 -34.8852 -34.8794
   -34.8696 -34.8562 -34.8562 -34.8487 -34.8421 -34.8373 -34.8373 -34.8309
   -34.8309 -34.8290 -34.8290 -34.8280  11.1462  11.3382  11.3689  11.3689
    11.5288  11.5825  11.5825  12.6951  14.0070  14.0070  14.1742  14.1742
    14.2510  14.5621  14.5621  14.5670  14.6156  14.6156  14.6288  14.6793
    14.6793  14.8433  14.8591  14.8591  14.8987  15.0837  15.0837  15.1403
    15.1795  15.1795  15.2043  15.2145  15.2145  15.2301  15.2562  15.2562
    15.2728  15.2745  15.2745  15.2876  15.4724  15.4724  15.4903  15.7383
    15.7383  16.5605  16.6593  16.6593  17.2454  17.2454  17.5649  17.5649
    17.7941  18.0538  18.0538  18.0616  18.0616  18.0650  18.0787  18.0814
    18.0814  18.1144  18.1144  18.1255  18.1255  18.1448  18.1548  18.1680
    18.1680  18.1760  18.1960  18.2101  18.2101  18.3057  18.3057  18.3558
    18.3558  18.3890  18.4902  18.5766  18.5766  18.5849  18.7157  23.5860
    23.6979

          k =-0.2500 0.0000 0.2500 (  6500 PWs)   bands (ev):

   -86.7162 -68.9460 -68.9330 -68.9323 -68.8769 -68.8703 -68.8652 -68.8554
   -68.8527 -68.8503 -68.8434 -68.8346 -68.8317 -68.8188 -68.8009 -46.9261
   -46.9228 -46.8462 -35.1919 -35.1869 -35.1837 -35.1596 -35.1414 -35.1410
   -35.1164 -35.1128 -35.0867 -35.0688 -35.0616 -35.0560 -35.0404 -35.0213
   -35.0146 -35.0046 -34.9914 -34.9885 -34.9815 -34.9793 -34.9748 -34.9702
   -34.9613 -34.9446 -34.9300 -34.9215 -34.9199 -34.9125 -34.8983 -34.8950
   -34.8856 -34.8624 -34.8587 -34.8475 -34.8401 -34.8282 -34.8261 -34.8214
   -34.8127 -34.8093 -34.8080 -34.7970   8.8030  10.8764  11.1655  12.4019
    12.6151  12.6278  13.0748  13.1705  13.1752  13.3138  13.3408  13.4536
    13.8018  13.8943  13.9897  14.1703  14.3131  14.4496  14.5183  14.7329
    14.7674  14.8064  14.8764  14.9098  15.0124  15.1199  15.1704  15.3328
    15.3900  15.4519  15.5133  15.6059  15.6373  15.7354  15.7720  15.8092
    15.9168  15.9353  16.0105  16.0873  16.1356  16.1960  16.3089  16.4186
    16.4840  16.5048  16.7003  16.8306  16.9005  16.9577  17.1282  17.2328
    17.2654  17.3242  17.4032  17.6212  17.6991  17.7729  17.8782  17.9225
    17.9451  18.0029  18.0721  18.1129  18.1394  18.2125  18.2215  18.2591
    18.2697  18.3036  18.3600  18.3833  18.4362  18.4740  18.4944  18.5252
    18.5428  18.6111  18.9968  19.0114  19.0487  19.4178  19.5173  19.7213
    19.8487

          k = 0.2500-0.2500 0.2500 (  6493 PWs)   bands (ev):

   -86.7163 -68.9439 -68.9342 -68.9324 -68.8765 -68.8710 -68.8680 -68.8556
   -68.8534 -68.8510 -68.8419 -68.8344 -68.8280 -68.8189 -68.8023 -46.9220
   -46.9216 -46.8473 -35.1780 -35.1725 -35.1700 -35.1488 -35.1408 -35.1365
   -35.1287 -35.1125 -35.0866 -35.0693 -35.0640 -35.0572 -35.0458 -35.0378
   -35.0308 -35.0260 -35.0155 -34.9993 -34.9965 -34.9805 -34.9765 -34.9409
   -34.9399 -34.9301 -34.9239 -34.9222 -34.9145 -34.9100 -34.9058 -34.8977
   -34.8790 -34.8598 -34.8488 -34.8481 -34.8384 -34.8258 -34.8219 -34.8186
   -34.8172 -34.8111 -34.8107 -34.8074   9.0993  11.0997  11.2002  11.4932
    12.5572  12.5941  12.8458  13.4534  13.5084  13.5443  13.6204  13.6216
    13.9249  13.9506  14.0545  14.2014  14.2858  14.3557  14.5076  14.6231
    14.7852  14.8211  14.8530  14.9225  14.9727  15.0503  15.1548  15.2789
    15.3144  15.3479  15.3879  15.4751  15.5321  15.5751  15.6147  15.7090
    15.7502  15.7896  15.8400  15.8610  16.0111  16.0267  16.0709  16.2559
    16.5198  16.5266  16.6580  16.8380  16.8887  17.1082  17.1599  17.4080
    17.4364  17.4736  17.5188  17.5987  17.6901  17.7742  17.8516  17.9372
    17.9666  17.9785  18.0635  18.0914  18.1035  18.2135  18.2441  18.2662
    18.2752  18.3029  18.3455  18.3556  18.4380  18.4680  18.4799  18.5234
    18.5642  18.5913  18.6248  18.9646  18.9687  19.0315  20.2036  20.2556
    20.4406

          k = 0.2500-0.2500-0.5000 (  6456 PWs)   bands (ev):

   -86.7162 -68.9404 -68.9370 -68.9324 -68.8754 -68.8733 -68.8694 -68.8561
   -68.8539 -68.8507 -68.8416 -68.8341 -68.8237 -68.8195 -68.8039 -46.9129
   -46.9123 -46.8397 -35.1606 -35.1546 -35.1528 -35.1503 -35.1452 -35.1286
   -35.1222 -35.1060 -35.0912 -35.0806 -35.0752 -35.0658 -35.0552 -35.0474
   -35.0303 -35.0189 -35.0156 -34.9996 -34.9958 -34.9899 -34.9831 -34.9520
   -34.9406 -34.9318 -34.9172 -34.9049 -34.9042 -34.8980 -34.8959 -34.8798
   -34.8769 -34.8540 -34.8523 -34.8462 -34.8360 -34.8297 -34.8244 -34.8211
   -34.8202 -34.8139 -34.8109 -34.8075   9.8015  10.1292  11.6701  11.8184
    11.9221  12.2948  13.1471  13.5443  13.6457  13.7479  13.8226  13.8674
    13.8976  13.9426  14.1203  14.1558  14.3045  14.3971  14.4778  14.5901
    14.7418  14.8336  14.9018  14.9242  14.9690  15.0086  15.0856  15.1501
    15.1791  15.2449  15.3394  15.4156  15.4367  15.4773  15.4844  15.5243
    15.6023  15.6813  15.6892  15.7763  15.8187  15.8511  15.9104  16.2612
    16.3558  16.5834  16.6984  16.8103  16.9593  16.9984  17.3719  17.4259
    17.4679  17.5214  17.6260  17.7207  17.7762  17.8023  17.8404  17.9230
    17.9812  18.0078  18.0390  18.0945  18.1673  18.1975  18.2167  18.2765
    18.3189  18.3312  18.3471  18.3549  18.3986  18.4333  18.4526  18.5270
    18.5524  18.5711  18.5833  18.6063  18.6733  19.7759  20.0212  20.7489
    20.8277

     the Fermi energy is    16.2219 ev

!    total energy              =   -3807.98692537 Ry
     estimated scf accuracy    <       0.00000009 Ry
     smearing contrib. (-TS)   =       0.01647807 Ry
     internal energy E=F+TS    =   -3808.00340344 Ry

     The total energy is F=E-TS. E is the sum of the following terms:
     one-electron contribution =   -1975.81825572 Ry
     hartree contribution      =    1114.06583846 Ry
     xc contribution           =    -422.88960034 Ry
     ewald contribution        =   -2523.36138584 Ry

     total magnetization       =    36.55 Bohr mag/cell
     absolute magnetization    =    38.97 Bohr mag/cell

     convergence has been achieved in  21 iterations

     negative rho (up, down):  0.000E+00 3.373E-03

     Forces acting on atoms (cartesian axes, Ry/au):

     atom    1 type  2   force =     0.00391622    0.00391622    0.00391622
     atom    2 type  1   force =    -0.00921843    0.00798114    0.00798114
     atom    3 type  1   force =     0.00798114   -0.00921843    0.00798114
     atom    4 type  1   force =    -0.00568201   -0.00568201    0.00848357
     atom    5 type  1   force =     0.00798114    0.00798114   -0.00921843
     atom    6 type  1   force =    -0.00568201    0.00848357   -0.00568201
     atom    7 type  1   force =     0.00848357   -0.00568201   -0.00568201
     atom    8 type  1   force =    -0.01114169   -0.01114169   -0.01114169
     atom    9 type  1   force =     0.00462679   -0.00146024   -0.00146024
     atom   10 type  1   force =    -0.00146024    0.00462679   -0.00146024
     atom   11 type  1   force =    -0.00178340   -0.00178340    0.00152202
     atom   12 type  1   force =    -0.00146024   -0.00146024    0.00462679
     atom   13 type  1   force =    -0.00178340    0.00152202   -0.00178340
     atom   14 type  1   force =     0.00152202   -0.00178340   -0.00178340
     atom   15 type  1   force =     0.00370056    0.00370056    0.00370056

     Total force =     0.040116     Total SCF correction =     0.000471
     Energy error            =      2.7E-03 Ry
     Gradient error          =      1.1E-02 Ry/Bohr

     number of scf cycles    =   3
     number of bfgs steps    =   2

     energy             old  =   -3807.9841969654 Ry
     energy             new  =   -3807.9869253732 Ry

     CASE: energy            _new < energy            _old

     new trust radius        =       0.0446002995 bohr
     new conv_thr            =       0.0000001114 Ry


ATOMIC_POSITIONS (crystal)
Ni               0.0022312119        0.0022312119        0.0022312119
Fe               0.4954625311        0.0037073086        0.0037073086
Fe               0.0037073086        0.4954625311        0.0037073086
Fe               0.4971230160        0.4971230160        0.0040852288
Fe               0.0037073086        0.0037073086        0.4954625311
Fe               0.4971230160        0.0040852288        0.4971230160
Fe               0.0040852288        0.4971230160        0.4971230160
Fe               0.4945972382        0.4945972382        0.4945972382
Fe               0.7522441959        0.2493346523        0.2493346523
Fe               0.2493346523        0.7522441959        0.2493346523
Fe               0.7492193618        0.7492193618        0.2506152689
Fe               0.2493346523        0.2493346523        0.7522441959
Fe               0.7492193618        0.2506152689        0.7492193618
Fe               0.2506152689        0.7492193618        0.7492193618
Fe               0.7519956479        0.7519956479        0.7519956479



     Writing config-only to output data dir ./outdir/fe15_ni1_end.save/ :
     XML data file
     NEW-OLD atomic charge density approx. for the potential

     Check: negative core charge=   -0.000004

     negative rho (up, down):  0.000E+00 2.453E-03
     Generating pointlists ...

     total cpu time spent up to now is     1974.9 secs

     per-process dynamical memory:   178.6 Mb

     Self-consistent Calculation

     iteration #  1     ecut=    45.00 Ry     beta= 0.10
     Davidson diagonalization with overlap
     c_bands:  2 eigenvalues not converged
     ethr =  1.00E-06,  avg # of iterations =  9.3

     negative rho (up, down):  0.000E+00 2.419E-03

     total cpu time spent up to now is     2039.1 secs

     total energy              =   -3807.99146423 Ry
     estimated scf accuracy    <       0.02873290 Ry

     total magnetization       =    36.61 Bohr mag/cell
     absolute magnetization    =    39.06 Bohr mag/cell

     iteration #  2     ecut=    45.00 Ry     beta= 0.10
     Davidson diagonalization with overlap
     ethr =  1.19E-05,  avg # of iterations =  2.0

     negative rho (up, down):  0.000E+00 2.421E-03

     total cpu time spent up to now is     2061.6 secs

     total energy              =   -3807.98402821 Ry
     estimated scf accuracy    <       0.30733232 Ry

     total magnetization       =    36.59 Bohr mag/cell
     absolute magnetization    =    39.40 Bohr mag/cell

     iteration #  3     ecut=    45.00 Ry     beta= 0.10
     Davidson diagonalization with overlap
     ethr =  1.19E-05,  avg # of iterations =  2.0

     negative rho (up, down):  0.000E+00 2.400E-03

     total cpu time spent up to now is     2084.6 secs

     total energy              =   -3807.98745163 Ry
     estimated scf accuracy    <       0.01176420 Ry

     total magnetization       =    36.59 Bohr mag/cell
     absolute magnetization    =    39.03 Bohr mag/cell

     iteration #  4     ecut=    45.00 Ry     beta= 0.10
     Davidson diagonalization with overlap
     ethr =  4.86E-06,  avg # of iterations =  1.5

     negative rho (up, down):  0.000E+00 2.358E-03

     total cpu time spent up to now is     2104.8 secs

     total energy              =   -3807.98801504 Ry
     estimated scf accuracy    <       0.00299463 Ry

     total magnetization       =    36.58 Bohr mag/cell
     absolute magnetization    =    39.02 Bohr mag/cell

     iteration #  5     ecut=    45.00 Ry     beta= 0.10
     Davidson diagonalization with overlap
     ethr =  1.24E-06,  avg # of iterations =  1.2

     negative rho (up, down):  0.000E+00 2.259E-03

     total cpu time spent up to now is     2124.2 secs

     total energy              =   -3807.98827123 Ry
     estimated scf accuracy    <       0.00088398 Ry

     total magnetization       =    36.56 Bohr mag/cell
     absolute magnetization    =    39.00 Bohr mag/cell

     iteration #  6     ecut=    45.00 Ry     beta= 0.10
     Davidson diagonalization with overlap
     ethr =  3.65E-07,  avg # of iterations =  2.2

     negative rho (up, down):  0.000E+00 2.230E-03

     total cpu time spent up to now is     2147.7 secs

     total energy              =   -3807.98868007 Ry
     estimated scf accuracy    <       0.00035250 Ry

     total magnetization       =    36.56 Bohr mag/cell
     absolute magnetization    =    39.01 Bohr mag/cell

     iteration #  7     ecut=    45.00 Ry     beta= 0.10
     Davidson diagonalization with overlap
     ethr =  1.46E-07,  avg # of iterations =  2.3

     negative rho (up, down):  0.000E+00 2.232E-03

     total cpu time spent up to now is     2169.7 secs

     total energy              =   -3807.98895714 Ry
     estimated scf accuracy    <       0.00001999 Ry

     total magnetization       =    36.56 Bohr mag/cell
     absolute magnetization    =    39.00 Bohr mag/cell

     iteration #  8     ecut=    45.00 Ry     beta= 0.10
     Davidson diagonalization with overlap
     ethr =  8.26E-09,  avg # of iterations =  4.7

     negative rho (up, down):  0.000E+00 2.227E-03

     total cpu time spent up to now is     2197.2 secs

     total energy              =   -3807.98921072 Ry
     estimated scf accuracy    <       0.00004149 Ry

     total magnetization       =    36.56 Bohr mag/cell
     absolute magnetization    =    39.00 Bohr mag/cell

     iteration #  9     ecut=    45.00 Ry     beta= 0.10
     Davidson diagonalization with overlap
     ethr =  8.26E-09,  avg # of iterations =  2.1

     negative rho (up, down):  0.000E+00 2.220E-03

     total cpu time spent up to now is     2219.8 secs

     total energy              =   -3807.98936290 Ry
     estimated scf accuracy    <       0.00003533 Ry

     total magnetization       =    36.56 Bohr mag/cell
     absolute magnetization    =    39.00 Bohr mag/cell

     iteration # 10     ecut=    45.00 Ry     beta= 0.10
     Davidson diagonalization with overlap
     ethr =  8.26E-09,  avg # of iterations =  1.7

     negative rho (up, down):  0.000E+00 2.219E-03

     total cpu time spent up to now is     2240.2 secs

     total energy              =   -3807.98947205 Ry
     estimated scf accuracy    <       0.00005743 Ry

     total magnetization       =    36.56 Bohr mag/cell
     absolute magnetization    =    39.00 Bohr mag/cell

     iteration # 11     ecut=    45.00 Ry     beta= 0.10
     Davidson diagonalization with overlap
     ethr =  8.26E-09,  avg # of iterations =  2.0

     negative rho (up, down):  0.000E+00 2.217E-03

     total cpu time spent up to now is     2262.9 secs

     total energy              =   -3807.98960042 Ry
     estimated scf accuracy    <       0.00001643 Ry

     total magnetization       =    36.56 Bohr mag/cell
     absolute magnetization    =    39.00 Bohr mag/cell

     iteration # 12     ecut=    45.00 Ry     beta= 0.10
     Davidson diagonalization with overlap
     ethr =  6.79E-09,  avg # of iterations =  1.0

     negative rho (up, down):  0.000E+00 2.205E-03

     total cpu time spent up to now is     2282.0 secs

     total energy              =   -3807.98970194 Ry
     estimated scf accuracy    <       0.00001576 Ry

     total magnetization       =    36.56 Bohr mag/cell
     absolute magnetization    =    39.00 Bohr mag/cell

     iteration # 13     ecut=    45.00 Ry     beta= 0.10
     Davidson diagonalization with overlap
     ethr =  6.51E-09,  avg # of iterations =  2.0

     negative rho (up, down):  0.000E+00 2.202E-03

     total cpu time spent up to now is     2305.2 secs

     total energy              =   -3807.98975303 Ry
     estimated scf accuracy    <       0.00004781 Ry

     total magnetization       =    36.56 Bohr mag/cell
     absolute magnetization    =    39.00 Bohr mag/cell

     iteration # 14     ecut=    45.00 Ry     beta= 0.10
     Davidson diagonalization with overlap
     ethr =  6.51E-09,  avg # of iterations =  2.0

     negative rho (up, down):  0.000E+00 2.199E-03

     total cpu time spent up to now is     2327.8 secs

     total energy              =   -3807.98982222 Ry
     estimated scf accuracy    <       0.00000969 Ry

     total magnetization       =    36.56 Bohr mag/cell
     absolute magnetization    =    39.00 Bohr mag/cell

     iteration # 15     ecut=    45.00 Ry     beta= 0.10
     Davidson diagonalization with overlap
     ethr =  4.01E-09,  avg # of iterations =  1.5

     negative rho (up, down):  0.000E+00 2.193E-03

     total cpu time spent up to now is     2347.8 secs

     total energy              =   -3807.98987807 Ry
     estimated scf accuracy    <       0.00001482 Ry

     total magnetization       =    36.56 Bohr mag/cell
     absolute magnetization    =    39.00 Bohr mag/cell

     iteration # 16     ecut=    45.00 Ry     beta= 0.10
     Davidson diagonalization with overlap
     ethr =  4.01E-09,  avg # of iterations =  2.0

     negative rho (up, down):  0.000E+00 2.178E-03

     total cpu time spent up to now is     2369.6 secs

     total energy              =   -3807.98991253 Ry
     estimated scf accuracy    <       0.00000105 Ry

     total magnetization       =    36.56 Bohr mag/cell
     absolute magnetization    =    39.00 Bohr mag/cell

     iteration # 17     ecut=    45.00 Ry     beta= 0.10
     Davidson diagonalization with overlap
     ethr =  4.33E-10,  avg # of iterations =  3.2

     negative rho (up, down):  0.000E+00 2.176E-03

     total cpu time spent up to now is     2396.2 secs

     total energy              =   -3807.98994292 Ry
     estimated scf accuracy    <       0.00000079 Ry

     total magnetization       =    36.56 Bohr mag/cell
     absolute magnetization    =    39.00 Bohr mag/cell

     iteration # 18     ecut=    45.00 Ry     beta= 0.10
     Davidson diagonalization with overlap
     ethr =  3.26E-10,  avg # of iterations =  2.0

     negative rho (up, down):  0.000E+00 2.175E-03

     total cpu time spent up to now is     2418.7 secs

     total energy              =   -3807.98996936 Ry
     estimated scf accuracy    <       0.00000049 Ry

     total magnetization       =    36.56 Bohr mag/cell
     absolute magnetization    =    39.00 Bohr mag/cell

     iteration # 19     ecut=    45.00 Ry     beta= 0.10
     Davidson diagonalization with overlap
     ethr =  2.04E-10,  avg # of iterations =  1.5

     negative rho (up, down):  0.000E+00 2.172E-03

     total cpu time spent up to now is     2439.2 secs

     total energy              =   -3807.98999015 Ry
     estimated scf accuracy    <       0.00000023 Ry

     total magnetization       =    36.56 Bohr mag/cell
     absolute magnetization    =    39.00 Bohr mag/cell

     iteration # 20     ecut=    45.00 Ry     beta= 0.10
     Davidson diagonalization with overlap
     ethr =  9.30E-11,  avg # of iterations =  2.0

     negative rho (up, down):  0.000E+00 2.165E-03

     Magnetic moment per site  (integrated on atomic sphere of radius R)
     atom   1 (R=0.179)  charge= 16.6332  magn=  0.9513
     atom   2 (R=0.179)  charge= 14.3830  magn=  2.6046
     atom   3 (R=0.179)  charge= 14.3830  magn=  2.6046
     atom   4 (R=0.179)  charge= 14.3753  magn=  2.6579
     atom   5 (R=0.179)  charge= 14.3830  magn=  2.6046
     atom   6 (R=0.179)  charge= 14.3753  magn=  2.6579
     atom   7 (R=0.179)  charge= 14.3753  magn=  2.6579
     atom   8 (R=0.179)  charge= 14.3718  magn=  2.6805
     atom   9 (R=0.179)  charge= 14.4345  magn=  2.4801
     atom  10 (R=0.179)  charge= 14.4345  magn=  2.4801
     atom  11 (R=0.179)  charge= 14.3960  magn=  2.6386
     atom  12 (R=0.179)  charge= 14.4345  magn=  2.4801
     atom  13 (R=0.179)  charge= 14.3960  magn=  2.6386
     atom  14 (R=0.179)  charge= 14.3960  magn=  2.6386
     atom  15 (R=0.179)  charge= 14.3705  magn=  2.7362

     total cpu time spent up to now is     2462.3 secs

     End of self-consistent calculation

 ------ SPIN UP ------------


          k = 0.0000 0.0000 0.0000 (  6451 PWs)   bands (ev):

   -88.0548 -72.2940 -72.2464 -72.2340 -72.2340 -72.1908 -72.1908 -72.1834
   -72.1729 -72.0981 -72.0980 -72.0980 -71.9499 -71.9499 -71.9437 -48.2582
   -48.2582 -48.1484 -38.4247 -38.3739 -38.3739 -38.3276 -38.3276 -38.3210
   -38.3020 -38.2845 -38.2845 -38.2798 -38.2594 -38.2502 -38.2385 -38.2385
   -38.1985 -38.1985 -38.1836 -38.1591 -38.1591 -38.1399 -38.1399 -38.1199
   -38.1199 -38.1121 -38.1055 -38.0987 -38.0987 -38.0598 -38.0560 -38.0560
   -38.0507 -38.0507 -38.0461 -38.0097 -37.9451 -37.9451 -37.9018 -37.9018
   -37.8402 -37.8399 -37.8381 -37.8381   8.0665  11.3645  11.4139  11.4139
    11.4440  11.4914  11.4914  11.5349  11.5349  11.6599  11.7372  11.7372
    12.0409  12.0409  12.4639  12.7394  12.7479  12.7479  12.8091  12.8091
    12.8234  12.9429  12.9429  12.9771  13.1679  13.1679  13.2097  13.2305
    13.3771  13.3771  13.4187  13.6842  13.6842  13.8108  13.8134  13.8134
    14.0408  14.0408  14.0581  14.1587  14.1587  14.1681  14.1681  14.1682
    14.2108  14.5675  14.5912  14.5912  14.7210  14.8225  14.8225  14.8431
    14.8431  14.9788  15.0290  15.0315  15.0315  15.0930  15.0930  15.1399
    15.1399  15.1718  15.1718  15.1910  15.1910  15.2130  15.2329  15.4843
    15.6158  15.6158  16.0105  16.0105  16.0414  16.0414  16.1476  16.1476
    16.1670  16.1826  16.2970  16.2970  16.3378  16.5702  16.5748  16.5748
    16.6326

          k = 0.0000 0.0000 0.2500 (  6495 PWs)   bands (ev):

   -88.0549 -72.2939 -72.2453 -72.2359 -72.2341 -72.1909 -72.1902 -72.1839
   -72.1728 -72.0990 -72.0982 -72.0972 -71.9501 -71.9492 -71.9443 -48.2712
   -48.2668 -48.1591 -38.4254 -38.3758 -38.3739 -38.3304 -38.3287 -38.3200
   -38.3079 -38.2921 -38.2816 -38.2736 -38.2571 -38.2452 -38.2409 -38.2357
   -38.2139 -38.2082 -38.1882 -38.1723 -38.1635 -38.1543 -38.1376 -38.1343
   -38.1277 -38.1161 -38.0991 -38.0980 -38.0892 -38.0614 -38.0559 -38.0477
   -38.0459 -38.0336 -38.0319 -38.0038 -37.9573 -37.9527 -37.8999 -37.8974
   -37.8525 -37.8522 -37.8480 -37.8471   8.3643  10.5234  11.4744  11.4906
    11.5230  11.5687  11.5879  11.6092  11.6794  11.7602  11.8118  11.8415
    12.0999  12.1584  12.4717  12.6558  12.6922  12.6987  12.7324  12.7816
    12.8536  12.8677  12.9216  13.0879  13.0915  13.1549  13.2039  13.2622
    13.2806  13.5479  13.5605  13.6581  13.7261  13.7289  13.7706  13.7794
    13.8200  13.8498  13.9452  14.0867  14.0899  14.2636  14.3296  14.3957
    14.3992  14.4887  14.5241  14.5735  14.5817  14.6273  14.6618  14.7575
    14.7979  14.8687  14.9365  14.9683  15.0278  15.0360  15.0854  15.0894
    15.1143  15.1251  15.1376  15.1610  15.1767  15.1793  15.2226  15.2658
    15.3215  15.4824  15.5362  15.5607  15.6203  15.9089  16.0504  16.0780
    16.0980  16.1506  16.2733  16.2786  16.4413  16.6177  16.7825  16.8493
    17.0107

          k = 0.0000 0.0000-0.5000 (  6480 PWs)   bands (ev):

   -88.0549 -72.2936 -72.2432 -72.2385 -72.2341 -72.1909 -72.1892 -72.1847
   -72.1727 -72.0993 -72.0982 -72.0969 -71.9501 -71.9478 -71.9456 -48.2712
   -48.2621 -48.1563 -38.4216 -38.3692 -38.3619 -38.3316 -38.3192 -38.3094
   -38.2971 -38.2968 -38.2934 -38.2757 -38.2606 -38.2458 -38.2364 -38.2344
   -38.2253 -38.2239 -38.1914 -38.1909 -38.1646 -38.1603 -38.1446 -38.1405
   -38.1316 -38.1131 -38.0976 -38.0936 -38.0842 -38.0635 -38.0498 -38.0431
   -38.0421 -38.0189 -38.0172 -37.9941 -37.9656 -37.9535 -37.8936 -37.8843
   -37.8645 -37.8608 -37.8505 -37.8488   9.0938   9.4204  11.5802  11.6046
    11.6391  11.7084  11.7667  11.7678  11.8141  11.8928  11.9185  12.0171
    12.0398  12.1809  12.3226  12.3460  12.4346  12.6521  12.6627  12.6698
    12.9357  12.9421  13.2064  13.2259  13.2468  13.2641  13.2745  13.4036
    13.4342  13.4919  13.5504  13.6038  13.6136  13.6424  13.6644  13.7409
    13.7720  13.7822  13.8028  13.9174  13.9256  14.0919  14.1916  14.2185
    14.2866  14.3636  14.4043  14.4419  14.5362  14.5445  14.6643  14.6868
    14.7129  14.7603  14.7695  14.9410  15.0103  15.0431  15.0711  15.0787
    15.0835  15.1437  15.1660  15.1699  15.1871  15.2001  15.2086  15.2514
    15.4375  15.5473  15.6430  15.6758  15.6859  15.7465  15.7589  15.8046
    15.8647  16.2458  16.3977  16.4295  16.5177  16.6379  16.6808  16.7138
    16.7308

          k = 0.0000 0.2500 0.2500 (  6500 PWs)   bands (ev):

   -88.0549 -72.2936 -72.2438 -72.2371 -72.2349 -72.1908 -72.1891 -72.1849
   -72.1727 -72.0990 -72.0983 -72.0972 -71.9497 -71.9488 -71.9451 -48.2719
   -48.2661 -48.1627 -38.4237 -38.3715 -38.3669 -38.3263 -38.3221 -38.3137
   -38.3123 -38.2978 -38.2824 -38.2821 -38.2606 -38.2447 -38.2403 -38.2337
   -38.2292 -38.2112 -38.1863 -38.1696 -38.1635 -38.1483 -38.1398 -38.1357
   -38.1309 -38.1307 -38.1082 -38.1026 -38.0843 -38.0615 -38.0594 -38.0425
   -38.0421 -38.0351 -38.0307 -37.9911 -37.9579 -37.9553 -37.8927 -37.8860
   -37.8624 -37.8528 -37.8518 -37.8471   8.6628  10.6375  10.7844  11.4137
    11.6568  11.6876  11.6970  11.7308  11.7980  11.8921  11.9264  11.9740
    12.2191  12.2358  12.5195  12.5721  12.6113  12.6998  12.7963  12.8361
    12.8690  12.9034  12.9319  12.9592  13.0149  13.0241  13.2035  13.3036
    13.3654  13.3909  13.4882  13.5932  13.6002  13.6881  13.7060  13.7685
    13.7812  13.9167  13.9424  14.0563  14.1194  14.2324  14.2759  14.3093
    14.3587  14.3847  14.4230  14.4383  14.5199  14.5873  14.6141  14.6543
    14.6595  14.7605  14.7956  14.8355  14.9093  14.9827  15.0074  15.0351
    15.0626  15.0889  15.1122  15.1617  15.1763  15.2355  15.2938  15.3429
    15.3657  15.3836  15.4016  15.4807  15.5078  15.5257  15.5623  15.7092
    15.7832  15.8189  16.0800  16.5286  16.5546  17.6000  17.6641  17.8262
    17.9866

          k = 0.0000 0.2500-0.5000 (  6452 PWs)   bands (ev):

   -88.0548 -72.2933 -72.2422 -72.2385 -72.2352 -72.1907 -72.1886 -72.1853
   -72.1726 -72.0993 -72.0983 -72.0968 -71.9494 -71.9478 -71.9462 -48.2620
   -48.2558 -48.1488 -38.4182 -38.3633 -38.3562 -38.3311 -38.3189 -38.3104
   -38.3021 -38.2939 -38.2915 -38.2771 -38.2637 -38.2528 -38.2379 -38.2333
   -38.2277 -38.2162 -38.1855 -38.1684 -38.1566 -38.1523 -38.1405 -38.1343
   -38.1291 -38.1195 -38.1018 -38.0976 -38.0823 -38.0643 -38.0593 -38.0469
   -38.0439 -38.0307 -38.0273 -37.9788 -37.9627 -37.9546 -37.8843 -37.8757
   -37.8628 -37.8587 -37.8499 -37.8448   9.3673   9.6684  11.0254  11.2544
    11.8010  11.8767  11.9640  11.9739  12.0023  12.0280  12.0382  12.1154
    12.1514  12.2672  12.3683  12.3928  12.5088  12.6852  12.7537  12.7595
    12.9319  12.9723  13.0396  13.0868  13.1130  13.1438  13.2073  13.2890
    13.3347  13.4041  13.5211  13.5397  13.5574  13.6015  13.6356  13.6581
    13.6793  13.7456  13.7721  13.8456  13.9371  13.9784  14.0230  14.1083
    14.1801  14.2999  14.4531  14.4791  14.5047  14.5565  14.6585  14.6891
    14.7207  14.7464  14.7575  14.7929  14.8369  14.8794  14.9488  14.9972
    15.0401  15.0596  15.1030  15.1378  15.1531  15.2048  15.2218  15.2372
    15.2864  15.3282  15.3615  15.4001  15.4598  15.4700  15.4960  15.6696
    15.7695  15.9561  16.0908  17.0185  17.0902  17.1256  17.2306  18.7221
    18.8230

          k = 0.0000-0.5000-0.5000 (  6496 PWs)   bands (ev):

   -88.0549 -72.2932 -72.2401 -72.2398 -72.2365 -72.1908 -72.1875 -72.1866
   -72.1726 -72.0994 -72.0984 -72.0968 -71.9482 -71.9478 -71.9475 -48.2734
   -48.2655 -48.1592 -38.4166 -38.3607 -38.3476 -38.3345 -38.3206 -38.3140
   -38.3117 -38.2964 -38.2915 -38.2799 -38.2700 -38.2680 -38.2376 -38.2345
   -38.2246 -38.2180 -38.1817 -38.1495 -38.1486 -38.1457 -38.1383 -38.1374
   -38.1366 -38.1112 -38.1092 -38.1022 -38.0958 -38.0827 -38.0716 -38.0560
   -38.0531 -38.0382 -38.0342 -37.9696 -37.9648 -37.9593 -37.8784 -37.8685
   -37.8670 -37.8579 -37.8558 -37.8431  10.0581  10.1452  10.1589  10.6932
    12.0448  12.0613  12.0684  12.1648  12.2145  12.2231  12.2265  12.2529
    12.3232  12.3533  12.5404  12.5706  12.6074  12.6105  12.6881  12.7003
    12.8176  12.8711  12.8779  12.9102  12.9159  13.0105  13.0374  13.2586
    13.3368  13.3436  13.4233  13.4473  13.4781  13.5254  13.5435  13.5851
    13.6340  13.6651  13.6725  13.6965  13.7594  13.7641  13.9364  14.0552
    14.1221  14.2592  14.3328  14.4389  14.5690  14.6201  14.6449  14.6794
    14.7030  14.7163  14.7651  14.7955  14.8190  14.8509  14.8594  14.9073
    14.9252  14.9352  14.9813  15.0322  15.0519  15.0613  15.1221  15.1295
    15.1464  15.2158  15.2354  15.2864  15.3566  15.3894  15.4125  15.6977
    15.8048  16.0478  16.1979  17.8143  17.8596  17.9745  18.1201  18.1628
    18.2747

          k = 0.2500 0.2500 0.2500 (  6493 PWs)   bands (ev):

   -88.0549 -72.2934 -72.2422 -72.2370 -72.2370 -72.1891 -72.1891 -72.1865
   -72.1726 -72.0983 -72.0983 -72.0979 -71.9488 -71.9488 -71.9460 -48.2688
   -48.2688 -48.1586 -38.4211 -38.3619 -38.3619 -38.3194 -38.3177 -38.3177
   -38.3056 -38.3034 -38.2830 -38.2830 -38.2651 -38.2411 -38.2411 -38.2345
   -38.2345 -38.2241 -38.1785 -38.1672 -38.1672 -38.1463 -38.1463 -38.1307
   -38.1307 -38.1299 -38.1209 -38.0893 -38.0893 -38.0624 -38.0624 -38.0591
   -38.0331 -38.0312 -38.0312 -37.9860 -37.9582 -37.9582 -37.8816 -37.8816
   -37.8678 -37.8527 -37.8503 -37.8503   8.9540  10.8559  10.8559  11.0434
    11.6099  11.6099  11.6869  11.8956  11.8956  11.9968  12.0997  12.0997
    12.3829  12.3829  12.5470  12.5789  12.5956  12.7354  12.7354  12.8509
    12.8509  12.9024  12.9516  12.9859  12.9859  13.1185  13.1185  13.2481
    13.3349  13.3349  13.3525  13.4619  13.4619  13.5812  13.5812  13.6806
    13.6806  13.7423  13.7925  13.9246  13.9246  14.0148  14.1757  14.1757
    14.2672  14.2672  14.3497  14.5478  14.5669  14.5669  14.6028  14.7339
    14.7339  14.7760  14.8335  14.8504  14.8504  14.9234  14.9601  14.9601
    15.0635  15.0635  15.0705  15.1405  15.1405  15.1792  15.1928  15.1928
    15.2435  15.3243  15.3243  15.5575  15.5575  15.5887  15.6878  15.6878
    15.7266  15.7266  15.8549  16.5746  16.5746  16.6503  18.5253  18.5253
    18.7364

          k = 0.2500 0.2500-0.5000 (  6456 PWs)   bands (ev):

   -88.0548 -72.2931 -72.2413 -72.2381 -72.2368 -72.1895 -72.1892 -72.1862
   -72.1725 -72.0990 -72.0983 -72.0971 -71.9487 -71.9479 -71.9468 -48.2633
   -48.2576 -48.1486 -38.4156 -38.3572 -38.3519 -38.3277 -38.3173 -38.3126
   -38.3028 -38.2932 -38.2883 -38.2800 -38.2635 -38.2526 -38.2464 -38.2291
   -38.2291 -38.2158 -38.1775 -38.1705 -38.1584 -38.1523 -38.1390 -38.1358
   -38.1235 -38.1229 -38.1117 -38.1026 -38.0996 -38.0646 -38.0561 -38.0512
   -38.0350 -38.0325 -38.0232 -37.9786 -37.9653 -37.9567 -37.8826 -37.8749
   -37.8655 -37.8578 -37.8488 -37.8459   9.6434   9.9226  11.2599  11.2691
    11.3827  11.5920  12.1123  12.1538  12.1687  12.1727  12.1934  12.1980
    12.2537  12.3707  12.3796  12.4964  12.6044  12.7111  12.7721  12.8573
    12.9404  12.9615  12.9826  13.0318  13.0566  13.1194  13.1469  13.1876
    13.2039  13.2842  13.3975  13.4259  13.4522  13.4553  13.4798  13.5041
    13.5282  13.5479  13.5514  13.5920  13.7336  13.8372  13.8552  13.9673
    14.0393  14.2164  14.3705  14.4046  14.6008  14.6466  14.6830  14.7128
    14.7510  14.7535  14.8136  14.8273  14.8424  14.9288  14.9751  15.0318
    15.0368  15.0921  15.1123  15.1201  15.1418  15.1803  15.1860  15.2200
    15.2362  15.3545  15.3590  15.4003  15.4873  15.6951  15.7122  15.7640
    15.8273  15.8702  15.9005  16.0026  16.0181  17.6862  17.9462  19.2254
    19.2341

          k = 0.2500-0.5000-0.5000 (  6472 PWs)   bands (ev):

   -88.0548 -72.2929 -72.2398 -72.2396 -72.2369 -72.1904 -72.1876 -72.1871
   -72.1724 -72.0990 -72.0984 -72.0971 -71.9484 -71.9476 -71.9474 -48.2637
   -48.2631 -48.1536 -38.4120 -38.3506 -38.3425 -38.3305 -38.3180 -38.3138
   -38.3057 -38.2903 -38.2854 -38.2771 -38.2643 -38.2630 -38.2467 -38.2290
   -38.2227 -38.2180 -38.1710 -38.1585 -38.1576 -38.1478 -38.1466 -38.1394
   -38.1373 -38.1297 -38.1273 -38.1126 -38.1085 -38.0577 -38.0509 -38.0482
   -38.0354 -38.0270 -38.0253 -37.9746 -37.9681 -37.9639 -37.8797 -37.8734
   -37.8731 -37.8586 -37.8515 -37.8479  10.3199  10.4176  10.4256  10.8995
    11.7500  11.9000  11.9171  12.2241  12.2415  12.2607  12.2842  12.5308
    12.5527  12.5706  12.5893  12.6648  12.6735  12.6991  12.7267  12.7703
    12.7858  12.8801  12.8835  12.9029  12.9694  12.9730  12.9951  13.1247
    13.1625  13.1885  13.1983  13.2451  13.2714  13.3042  13.3489  13.3765
    13.4070  13.4127  13.4156  13.5192  13.5531  13.6197  13.6248  13.6808
    13.8234  14.2345  14.2412  14.2830  14.7097  14.7279  14.7641  14.8425
    14.8663  14.8839  14.9088  14.9169  14.9688  14.9896  15.0174  15.0399
    15.0451  15.0914  15.1124  15.1250  15.1400  15.1420  15.1795  15.2291
    15.2367  15.2536  15.2846  15.3522  15.4110  15.4173  15.4400  15.6185
    15.6746  15.8123  15.9313  16.6579  16.7388  16.7518  16.9362  20.1559
    20.2976

          k =-0.5000-0.5000-0.5000 (  6488 PWs)   bands (ev):

   -88.0548 -72.2928 -72.2395 -72.2395 -72.2375 -72.1897 -72.1877 -72.1877
   -72.1723 -72.0983 -72.0983 -72.0978 -71.9485 -71.9474 -71.9474 -48.2654
   -48.2654 -48.1556 -38.4076 -38.3356 -38.3356 -38.3325 -38.3146 -38.3146
   -38.3065 -38.2790 -38.2790 -38.2742 -38.2654 -38.2534 -38.2534 -38.2247
   -38.2247 -38.2231 -38.1692 -38.1692 -38.1557 -38.1545 -38.1516 -38.1516
   -38.1456 -38.1366 -38.1366 -38.1185 -38.1185 -38.0431 -38.0360 -38.0360
   -38.0299 -38.0213 -38.0213 -37.9766 -37.9741 -37.9741 -37.8798 -37.8769
   -37.8769 -37.8633 -37.8544 -37.8544  10.9284  11.0709  11.0709  11.0806
    11.1947  11.2186  11.2186  12.1481  12.6397  12.6397  12.6809  12.6809
    12.6809  12.6888  12.6983  12.6983  12.7286  12.7286  12.7393  12.8258
    12.8691  12.8691  12.9133  12.9133  13.0054  13.0054  13.0438  13.0447
    13.0447  13.0507  13.0954  13.1096  13.1096  13.1343  13.1343  13.1374
    13.1374  13.1599  13.1599  13.1656  13.1772  13.1772  13.2413  13.6528
    13.6528  14.1752  14.2058  14.2058  14.7574  14.7574  14.9015  14.9025
    14.9025  14.9526  14.9526  14.9930  15.0008  15.0008  15.0524  15.0816
    15.0850  15.0850  15.1496  15.1496  15.2769  15.3130  15.3130  15.3701
    15.3996  15.3996  15.4402  15.4402  15.4963  15.5295  15.5295  15.7224
    15.7224  15.7705  15.9055  16.0391  16.0391  16.0499  16.0608  22.4618
    22.4619

          k =-0.2500 0.0000 0.2500 (  6500 PWs)   bands (ev):

   -88.0549 -72.2936 -72.2444 -72.2360 -72.2352 -72.1908 -72.1900 -72.1842
   -72.1728 -72.0994 -72.0983 -72.0969 -71.9495 -71.9492 -71.9449 -48.2731
   -48.2696 -48.1579 -38.4220 -38.3697 -38.3688 -38.3325 -38.3267 -38.3108
   -38.3090 -38.2986 -38.2831 -38.2767 -38.2561 -38.2525 -38.2410 -38.2396
   -38.2252 -38.2166 -38.1914 -38.1670 -38.1577 -38.1477 -38.1408 -38.1333
   -38.1251 -38.1139 -38.1049 -38.1031 -38.0858 -38.0640 -38.0589 -38.0539
   -38.0427 -38.0390 -38.0319 -37.9920 -37.9601 -37.9554 -37.8967 -37.8882
   -37.8578 -37.8546 -37.8494 -37.8426   8.6630  10.6048  10.8214  11.4069
    11.6592  11.6866  11.7110  11.7585  11.7647  11.9068  11.9095  11.9692
    12.2043  12.2324  12.5228  12.5804  12.6047  12.7086  12.7805  12.8411
    12.8638  12.8920  12.9429  12.9897  13.0125  13.0227  13.1997  13.3205
    13.3734  13.4162  13.5066  13.5204  13.6608  13.6660  13.7073  13.7514
    13.7766  13.8987  13.9322  14.0600  14.1052  14.2024  14.3237  14.3422
    14.3763  14.3904  14.4363  14.4606  14.4737  14.5450  14.5940  14.6104
    14.6697  14.7819  14.8357  14.8768  14.9160  14.9494  15.0153  15.0557
    15.0842  15.1105  15.1367  15.1510  15.1547  15.2105  15.2710  15.3269
    15.3303  15.4035  15.4530  15.4739  15.5051  15.5259  15.5992  15.6151
    15.7212  15.7461  16.2205  16.5321  16.5647  17.5000  17.6702  17.8348
    18.0709

          k = 0.2500-0.2500 0.2500 (  6493 PWs)   bands (ev):

   -88.0549 -72.2934 -72.2434 -72.2370 -72.2355 -72.1910 -72.1891 -72.1849
   -72.1727 -72.0994 -72.0983 -72.0968 -71.9492 -71.9488 -71.9456 -48.2688
   -48.2684 -48.1589 -38.4189 -38.3641 -38.3606 -38.3313 -38.3211 -38.3118
   -38.3015 -38.2994 -38.2848 -38.2835 -38.2599 -38.2548 -38.2426 -38.2394
   -38.2303 -38.2106 -38.1871 -38.1609 -38.1571 -38.1539 -38.1440 -38.1307
   -38.1295 -38.1270 -38.1231 -38.0969 -38.0932 -38.0602 -38.0587 -38.0486
   -38.0350 -38.0329 -38.0314 -37.9882 -37.9606 -37.9579 -37.8924 -37.8796
   -37.8625 -37.8573 -37.8477 -37.8466   8.9546  10.8103  10.8562  11.0945
    11.5734  11.5994  11.7429  11.8813  11.9147  12.0216  12.0817  12.0937
    12.3631  12.3755  12.5405  12.5720  12.5846  12.7489  12.7573  12.8437
    12.8640  12.8955  12.9280  13.0094  13.0185  13.1070  13.1090  13.2659
    13.3202  13.3422  13.3568  13.4500  13.4879  13.5713  13.5800  13.6950
    13.7136  13.7336  13.7620  13.9206  13.9703  14.0326  14.1427  14.1814
    14.2268  14.2368  14.3841  14.4454  14.4810  14.5418  14.5855  14.7050
    14.7495  14.7644  14.8214  14.8880  14.9174  14.9540  15.0014  15.0065
    15.0537  15.0633  15.0833  15.1156  15.1236  15.1311  15.1729  15.1953
    15.3338  15.3538  15.3889  15.4963  15.5557  15.5666  15.5933  15.6855
    15.7439  15.8553  15.8587  16.5535  16.5543  16.6713  18.4698  18.5254
    18.7920

          k = 0.2500-0.2500-0.5000 (  6456 PWs)   bands (ev):

   -88.0548 -72.2931 -72.2417 -72.2389 -72.2355 -72.1911 -72.1881 -72.1857
   -72.1725 -72.0994 -72.0983 -72.0967 -71.9492 -71.9477 -71.9465 -48.2595
   -48.2589 -48.1512 -38.4151 -38.3570 -38.3518 -38.3322 -38.3171 -38.3122
   -38.3013 -38.2953 -38.2879 -38.2769 -38.2614 -38.2507 -38.2490 -38.2314
   -38.2290 -38.2118 -38.1740 -38.1675 -38.1555 -38.1493 -38.1410 -38.1399
   -38.1319 -38.1303 -38.1227 -38.1048 -38.0915 -38.0643 -38.0552 -38.0428
   -38.0336 -38.0303 -38.0175 -37.9802 -37.9640 -37.9597 -37.8822 -37.8756
   -37.8661 -37.8581 -37.8500 -37.8472   9.6428   9.9239  11.2215  11.3066
    11.3558  11.6307  12.0981  12.1471  12.1617  12.1900  12.1979  12.2176
    12.2395  12.3727  12.3859  12.4909  12.6052  12.7304  12.7546  12.8533
    12.9156  12.9510  12.9998  13.0210  13.0598  13.1256  13.1491  13.1976
    13.2462  13.3152  13.3965  13.4210  13.4378  13.4413  13.4841  13.4999
    13.5161  13.5356  13.5494  13.5594  13.7396  13.8358  13.8697  13.9713
    14.0232  14.2266  14.3586  14.4059  14.5794  14.6139  14.6555  14.7079
    14.7317  14.7729  14.7945  14.8236  14.8405  14.9374  14.9777  15.0280
    15.0542  15.0637  15.1159  15.1395  15.1654  15.1753  15.1866  15.2290
    15.2411  15.3448  15.4117  15.4403  15.4962  15.6051  15.7251  15.8249
    15.8536  15.8756  15.9019  16.0103  16.0172  17.6619  17.9213  19.1678
    19.2343

 ------ SPIN DOWN ----------


          k = 0.0000 0.0000 0.0000 (  6451 PWs)   bands (ev):

   -86.7216 -68.9474 -68.9273 -68.9273 -68.8786 -68.8613 -68.8613 -68.8585
   -68.8489 -68.8466 -68.8466 -68.8390 -68.8390 -68.8206 -68.7972 -46.9168
   -46.9168 -46.8422 -35.2089 -35.1970 -35.1970 -35.1670 -35.1485 -35.1485
   -35.0779 -35.0779 -35.0756 -35.0209 -35.0195 -35.0195 -35.0058 -35.0058
   -35.0028 -35.0028 -34.9999 -34.9943 -34.9750 -34.9750 -34.9630 -34.9624
   -34.9624 -34.9611 -34.9506 -34.9409 -34.9379 -34.9379 -34.9236 -34.9236
   -34.9115 -34.9115 -34.8885 -34.8371 -34.8122 -34.8122 -34.8101 -34.8101
   -34.7929 -34.7860 -34.7860 -34.7797   8.2041  12.1659  12.2221  12.2221
    12.3352  12.3352  12.4703  12.9055  12.9055  12.9892  13.0085  13.0085
    13.6659  13.7223  13.7223  14.3183  14.3183  14.4251  14.7183  14.7183
    14.7442  14.9002  14.9002  14.9807  15.1918  15.1918  15.3435  15.4279
    15.4279  15.6777  15.7210  15.8964  16.0194  16.0194  16.2377  16.2377
    16.3770  16.3770  16.4639  16.4645  16.5107  16.5107  16.5458  16.5562
    16.5562  16.6994  16.6994  16.7885  17.0104  17.0104  17.1050  17.2611
    17.2611  17.3198  17.3198  17.3638  17.5112  17.5112  17.6119  17.9241
    18.0117  18.0117  18.0691  18.0989  18.0989  18.2312  18.2312  18.3620
    18.3620  18.3903  18.3934  18.3967  18.3967  18.4413  18.5780  18.5780
    18.7764  18.7764  18.8276  18.8276  18.8860  18.8860  18.9216  18.9740
    19.0641

          k = 0.0000 0.0000 0.2500 (  6495 PWs)   bands (ev):

   -86.7216 -68.9446 -68.9296 -68.9273 -68.8780 -68.8683 -68.8611 -68.8560
   -68.8501 -68.8477 -68.8469 -68.8391 -68.8321 -68.8196 -68.7995 -46.9295
   -46.9253 -46.8526 -35.2020 -35.1911 -35.1896 -35.1582 -35.1475 -35.1463
   -35.0902 -35.0887 -35.0775 -35.0672 -35.0622 -35.0524 -35.0392 -35.0220
   -35.0188 -35.0051 -34.9837 -34.9793 -34.9780 -34.9681 -34.9587 -34.9542
   -34.9391 -34.9337 -34.9297 -34.9278 -34.9177 -34.9120 -34.9101 -34.9053
   -34.9028 -34.8923 -34.8843 -34.8453 -34.8298 -34.8238 -34.8203 -34.8198
   -34.8135 -34.8063 -34.8040 -34.7981   8.5061  10.7858  12.3778  12.3940
    12.4926  12.5310  12.9157  12.9407  12.9807  12.9851  13.1869  13.3108
    13.7128  13.8497  13.8769  14.2331  14.3317  14.3867  14.5379  14.7918
    14.7982  14.8637  14.9175  15.0178  15.0550  15.0753  15.3505  15.3524
    15.4276  15.4931  15.6291  15.8090  15.8762  15.9023  15.9926  16.0696
    16.0806  16.1283  16.1737  16.2170  16.2631  16.3102  16.3516  16.4960
    16.5314  16.6330  16.7725  16.7942  16.8809  16.9099  17.0715  17.1874
    17.2142  17.2865  17.3785  17.6488  17.7032  17.7346  17.8132  17.8855
    17.9219  17.9762  18.0527  18.0838  18.1494  18.1697  18.2854  18.3308
    18.3576  18.3793  18.3962  18.4925  18.5199  18.6208  18.6411  18.6868
    18.7135  18.7371  18.8379  18.8404  18.8616  18.9079  18.9473  18.9491
    18.9794

          k = 0.0000 0.0000-0.5000 (  6480 PWs)   bands (ev):

   -86.7216 -68.9399 -68.9339 -68.9273 -68.8761 -68.8742 -68.8609 -68.8551
   -68.8509 -68.8479 -68.8472 -68.8391 -68.8278 -68.8168 -68.8029 -46.9295
   -46.9209 -46.8498 -35.1569 -35.1546 -35.1537 -35.1484 -35.1461 -35.1356
   -35.1328 -35.1225 -35.1140 -35.0969 -35.0850 -35.0732 -35.0571 -35.0293
   -35.0208 -35.0094 -34.9939 -34.9875 -34.9834 -34.9696 -34.9631 -34.9519
   -34.9345 -34.9154 -34.9069 -34.9050 -34.8981 -34.8963 -34.8900 -34.8797
   -34.8748 -34.8717 -34.8612 -34.8449 -34.8442 -34.8334 -34.8276 -34.8264
   -34.8253 -34.8247 -34.8220 -34.8163   9.2477   9.5908  12.5853  12.6575
    12.6675  12.7449  12.8631  12.8687  12.9299  13.1637  13.5158  13.6063
    13.7367  13.9731  14.0240  14.0244  14.0868  14.3129  14.4596  14.5797
    14.8263  14.8434  14.9449  15.0667  15.1841  15.2891  15.4006  15.4205
    15.4388  15.4468  15.4663  15.5076  15.5205  15.5263  15.5979  15.7822
    15.8438  15.8738  15.9297  15.9557  16.0570  16.1568  16.2458  16.2849
    16.3426  16.5401  16.7062  16.9836  17.0790  17.2655  17.3546  17.3866
    17.4560  17.4820  17.5566  17.6404  17.6723  17.7879  17.7899  17.8277
    17.9069  17.9081  18.0505  18.2294  18.2385  18.3257  18.3291  18.3430
    18.3574  18.3732  18.4153  18.4185  18.4840  18.5179  18.5587  18.5777
    18.6183  18.7114  18.7823  18.8111  18.8226  18.9432  19.0060  19.0367
    19.0481

          k = 0.0000 0.2500 0.2500 (  6500 PWs)   bands (ev):

   -86.7216 -68.9418 -68.9309 -68.9282 -68.8778 -68.8671 -68.8659 -68.8575
   -68.8506 -68.8501 -68.8449 -68.8358 -68.8275 -68.8206 -68.8013 -46.9302
   -46.9245 -46.8562 -35.1942 -35.1762 -35.1664 -35.1464 -35.1394 -35.1376
   -35.1218 -35.1101 -35.1013 -35.0872 -35.0666 -35.0513 -35.0402 -35.0179
   -35.0057 -35.0047 -35.0007 -34.9824 -34.9794 -34.9723 -34.9698 -34.9587
   -34.9491 -34.9481 -34.9350 -34.9287 -34.9100 -34.9044 -34.8941 -34.8900
   -34.8839 -34.8636 -34.8619 -34.8530 -34.8397 -34.8297 -34.8269 -34.8249
   -34.8191 -34.8152 -34.7996 -34.7969   8.8080  10.9564  11.0899  12.4122
    12.6305  12.6440  13.0530  13.1567  13.2009  13.2435  13.3908  13.5026
    13.8187  13.8997  14.0548  14.1904  14.3305  14.3717  14.5427  14.6949
    14.7938  14.8169  14.8820  14.9391  15.0412  15.0533  15.1403  15.2541
    15.3741  15.4775  15.5018  15.6515  15.6949  15.7545  15.7633  15.8433
    15.9034  15.9290  16.0185  16.1184  16.1541  16.2018  16.2105  16.3836
    16.4828  16.6099  16.6758  16.8380  16.9539  17.1072  17.1273  17.1600
    17.3003  17.3194  17.4088  17.5258  17.5985  17.7381  17.8375  17.9555
    18.0002  18.0527  18.0637  18.1190  18.1390  18.1842  18.2266  18.2655
    18.2741  18.3506  18.3829  18.3864  18.4345  18.4361  18.4694  18.5411
    18.5588  18.6970  18.8503  18.9928  19.0368  19.5149  19.6301  19.7099
    19.7181

          k = 0.0000 0.2500-0.5000 (  6452 PWs)   bands (ev):

   -86.7216 -68.9380 -68.9335 -68.9287 -68.8757 -68.8733 -68.8645 -68.8583
   -68.8518 -68.8501 -68.8437 -68.8342 -68.8258 -68.8181 -68.8039 -46.9205
   -46.9145 -46.8425 -35.1644 -35.1583 -35.1513 -35.1465 -35.1434 -35.1393
   -35.1306 -35.1122 -35.1051 -35.0775 -35.0731 -35.0595 -35.0448 -35.0368
   -35.0208 -34.9996 -34.9971 -34.9850 -34.9804 -34.9757 -34.9726 -34.9588
   -34.9394 -34.9376 -34.9316 -34.9196 -34.9148 -34.9024 -34.8926 -34.8786
   -34.8687 -34.8603 -34.8495 -34.8408 -34.8360 -34.8322 -34.8282 -34.8244
   -34.8164 -34.8120 -34.8091 -34.8021   9.5324   9.8562  11.5121  11.8471
    12.8477  12.9276  13.0907  13.2083  13.4920  13.5527  13.6248  13.6742
    13.8246  13.9640  14.0380  14.0845  14.1766  14.3807  14.4657  14.6282
    14.7286  14.8289  14.8924  14.9980  15.0385  15.0825  15.1895  15.2397
    15.2632  15.3198  15.4066  15.4717  15.4905  15.5569  15.6110  15.6628
    15.7020  15.7641  15.8329  15.8937  16.0060  16.0291  16.1116  16.3999
    16.4358  16.4939  16.8312  16.9143  17.0049  17.1298  17.2488  17.3863
    17.4260  17.4678  17.5263  17.5456  17.5676  17.6344  17.7151  17.8309
    17.8918  17.9476  18.0120  18.0692  18.1343  18.2278  18.2406  18.2685
    18.3168  18.3326  18.3741  18.3858  18.4077  18.4225  18.4506  18.5421
    18.6404  18.7327  18.8530  19.2753  19.3119  19.3317  19.3972  20.2138
    20.3928

          k = 0.0000-0.5000-0.5000 (  6496 PWs)   bands (ev):

   -86.7216 -68.9344 -68.9337 -68.9313 -68.8754 -68.8709 -68.8689 -68.8617
   -68.8520 -68.8507 -68.8417 -68.8307 -68.8231 -68.8202 -68.8052 -46.9318
   -46.9238 -46.8527 -35.1667 -35.1553 -35.1531 -35.1523 -35.1489 -35.1435
   -35.1301 -35.1129 -35.1011 -35.0606 -35.0601 -35.0503 -35.0191 -35.0175
   -35.0133 -35.0043 -35.0002 -34.9948 -34.9914 -34.9890 -34.9821 -34.9742
   -34.9661 -34.9643 -34.9486 -34.9463 -34.9347 -34.9071 -34.8835 -34.8752
   -34.8682 -34.8629 -34.8493 -34.8410 -34.8362 -34.8301 -34.8289 -34.8264
   -34.8116 -34.8026 -34.8023 -34.7946  10.2623  10.3984  10.4234  10.9986
    13.2732  13.2897  13.3101  13.4685  13.5168  13.6091  13.6603  13.7595
    13.9417  13.9683  14.0357  14.1061  14.3984  14.4097  14.4735  14.5013
    14.6880  14.6894  14.7625  14.7630  14.8518  14.9927  15.0349  15.0771
    15.2372  15.2696  15.3391  15.3601  15.3738  15.4434  15.5189  15.5767
    15.6380  15.6434  15.7456  15.9382  15.9813  16.0379  16.1044  16.4013
    16.4242  16.6093  16.6146  16.8671  16.9141  16.9778  17.1587  17.2528
    17.2749  17.4258  17.5560  17.6401  17.6636  17.7270  17.7546  17.7929
    17.8220  17.8801  17.9250  17.9604  18.0400  18.1094  18.1180  18.2043
    18.2216  18.2828  18.2840  18.2916  18.3360  18.3990  18.4298  18.5890
    18.7417  18.8062  18.9874  19.7871  19.8761  20.0894  20.0925  20.1573
    20.2545

          k = 0.2500 0.2500 0.2500 (  6493 PWs)   bands (ev):

   -86.7216 -68.9390 -68.9306 -68.9306 -68.8778 -68.8666 -68.8666 -68.8617
   -68.8497 -68.8497 -68.8471 -68.8274 -68.8274 -68.8233 -68.8024 -46.9272
   -46.9272 -46.8521 -35.1830 -35.1501 -35.1501 -35.1372 -35.1372 -35.1359
   -35.1257 -35.1257 -35.1244 -35.0656 -35.0656 -35.0517 -35.0517 -35.0381
   -35.0311 -35.0152 -34.9951 -34.9951 -34.9778 -34.9778 -34.9745 -34.9415
   -34.9415 -34.9332 -34.9236 -34.9236 -34.9144 -34.9144 -34.9126 -34.8992
   -34.8776 -34.8522 -34.8505 -34.8505 -34.8330 -34.8270 -34.8270 -34.8221
   -34.8221 -34.8097 -34.8097 -34.8016   9.1031  11.2048  11.2048  11.3908
    12.6124  12.6124  12.7895  13.4174  13.4174  13.5376  13.6625  13.6625
    14.0505  14.0505  14.0645  14.1201  14.3927  14.3927  14.4014  14.7480
    14.7684  14.7684  14.8520  14.8520  15.0611  15.0625  15.0625  15.0672
    15.3953  15.3953  15.4362  15.4712  15.4712  15.6510  15.6510  15.6732
    15.6762  15.7451  15.7451  15.9993  15.9993  16.0900  16.0900  16.2543
    16.4880  16.6453  16.6453  17.0088  17.1558  17.1558  17.2349  17.2349
    17.3002  17.3393  17.5258  17.5520  17.5520  17.7952  17.8203  17.8203
    17.9300  18.0348  18.0348  18.1323  18.2055  18.2055  18.2523  18.2523
    18.2973  18.2973  18.3250  18.3737  18.3737  18.4871  18.4871  18.5526
    18.5766  18.5766  18.6494  18.9846  18.9846  19.0140  20.2456  20.2456
    20.3907

          k = 0.2500 0.2500-0.5000 (  6456 PWs)   bands (ev):

   -86.7216 -68.9363 -68.9326 -68.9304 -68.8764 -68.8726 -68.8673 -68.8596
   -68.8507 -68.8493 -68.8457 -68.8281 -68.8273 -68.8192 -68.8044 -46.9218
   -46.9162 -46.8424 -35.1602 -35.1570 -35.1546 -35.1408 -35.1311 -35.1308
   -35.1127 -35.1124 -35.0996 -35.0813 -35.0692 -35.0550 -35.0481 -35.0339
   -35.0248 -35.0198 -35.0140 -35.0026 -34.9891 -34.9843 -34.9834 -34.9465
   -34.9464 -34.9411 -34.9272 -34.9136 -34.9023 -34.9009 -34.8910 -34.8815
   -34.8758 -34.8561 -34.8537 -34.8470 -34.8331 -34.8270 -34.8241 -34.8233
   -34.8144 -34.8138 -34.8093 -34.8046   9.8167  10.1225  11.7622  11.7645
    11.9603  12.2312  13.1674  13.5473  13.6223  13.7046  13.7581  13.7999
    13.9515  14.0502  14.1541  14.2740  14.2862  14.3916  14.5626  14.6302
    14.6564  14.8640  14.8721  14.9118  14.9880  14.9952  15.0897  15.1233
    15.1650  15.2036  15.3424  15.3942  15.3997  15.4926  15.5113  15.5604
    15.5734  15.6696  15.7295  15.8228  15.8452  15.8791  15.9205  16.2174
    16.4056  16.5306  16.7436  16.8326  17.0154  17.1133  17.3350  17.3830
    17.4464  17.5617  17.6326  17.6353  17.7243  17.7311  17.8415  17.8930
    17.9675  17.9943  18.0893  18.1498  18.1557  18.1918  18.2296  18.2751
    18.2781  18.3160  18.3261  18.3537  18.3672  18.4341  18.4674  18.4792
    18.5489  18.5690  18.6108  18.6434  18.7003  19.8014  20.0289  20.7817
    20.8249

          k = 0.2500-0.5000-0.5000 (  6472 PWs)   bands (ev):

   -86.7216 -68.9339 -68.9335 -68.9308 -68.8764 -68.8725 -68.8712 -68.8590
   -68.8517 -68.8488 -68.8441 -68.8307 -68.8217 -68.8204 -68.8053 -46.9222
   -46.9215 -46.8473 -35.1516 -35.1435 -35.1414 -35.1353 -35.1324 -35.1288
   -35.1139 -35.1051 -35.0959 -35.0667 -35.0552 -35.0514 -35.0483 -35.0467
   -35.0419 -35.0361 -35.0328 -35.0279 -35.0057 -34.9921 -34.9875 -34.9435
   -34.9373 -34.9352 -34.9175 -34.9123 -34.9113 -34.8971 -34.8834 -34.8827
   -34.8688 -34.8595 -34.8504 -34.8485 -34.8352 -34.8306 -34.8293 -34.8256
   -34.8187 -34.8143 -34.8132 -34.8076  10.5313  10.6715  10.7009  11.2121
    12.3362  12.5110  12.5318  13.1668  13.8081  13.9392  14.0193  14.0704
    14.0849  14.1905  14.2569  14.3642  14.4711  14.4823  14.5327  14.5795
    14.6633  14.7279  14.7922  14.8464  14.8655  14.9842  14.9972  15.0824
    15.1607  15.2110  15.2498  15.2835  15.2841  15.3778  15.4039  15.4620
    15.4734  15.6085  15.6352  15.7111  15.7420  15.7728  15.8083  15.8772
    16.0502  16.6083  16.6371  16.7139  17.1189  17.1638  17.4418  17.4622
    17.6206  17.7205  17.7514  17.7625  17.8414  17.8847  17.8974  17.9153
    17.9268  17.9644  18.0175  18.0448  18.0749  18.1213  18.1761  18.1791
    18.1959  18.2380  18.2790  18.2812  18.3017  18.3374  18.3576  18.4537
    18.5223  18.5711  18.6468  19.0801  19.1435  19.1438  19.2686  21.6681
    21.8287

          k =-0.5000-0.5000-0.5000 (  6488 PWs)   bands (ev):

   -86.7216 -68.9333 -68.9333 -68.9302 -68.8778 -68.8732 -68.8732 -68.8565
   -68.8508 -68.8472 -68.8472 -68.8306 -68.8205 -68.8205 -68.8054 -46.9238
   -46.9238 -46.8493 -35.1223 -35.1223 -35.1150 -35.1091 -35.1091 -35.1084
   -35.0945 -35.0945 -35.0914 -35.0855 -35.0855 -35.0811 -35.0738 -35.0738
   -35.0676 -35.0544 -35.0492 -35.0492 -35.0152 -34.9889 -34.9889 -34.9355
   -34.9355 -34.9218 -34.8861 -34.8861 -34.8838 -34.8838 -34.8821 -34.8810
   -34.8704 -34.8578 -34.8578 -34.8493 -34.8431 -34.8349 -34.8349 -34.8326
   -34.8326 -34.8291 -34.8291 -34.8235  11.1603  11.3734  11.3844  11.3844
    11.5228  11.5746  11.5746  12.6507  14.0037  14.0037  14.1784  14.1784
    14.2578  14.5685  14.5685  14.5812  14.6222  14.6492  14.6492  14.6877
    14.6877  14.8517  14.8553  14.8553  14.8848  15.0816  15.0816  15.1115
    15.1511  15.1511  15.2464  15.2499  15.2499  15.2551  15.2590  15.2590
    15.2757  15.2926  15.3203  15.3203  15.4827  15.4930  15.4930  15.6980
    15.6980  16.5821  16.6531  16.6531  17.2589  17.2589  17.5471  17.5471
    17.7773  18.0181  18.0181  18.0437  18.0479  18.0479  18.0554  18.0554
    18.0656  18.1182  18.1182  18.1325  18.1325  18.1629  18.1769  18.1902
    18.1902  18.1902  18.1971  18.2427  18.2427  18.3147  18.3147  18.3567
    18.3567  18.3855  18.4762  18.5586  18.5586  18.5594  18.7461  23.5504
    23.5505

          k =-0.2500 0.0000 0.2500 (  6500 PWs)   bands (ev):

   -86.7216 -68.9425 -68.9295 -68.9288 -68.8769 -68.8711 -68.8634 -68.8560
   -68.8520 -68.8491 -68.8449 -68.8343 -68.8316 -68.8182 -68.8015 -46.9313
   -46.9280 -46.8515 -35.1890 -35.1842 -35.1807 -35.1546 -35.1361 -35.1354
   -35.1140 -35.1109 -35.0849 -35.0678 -35.0594 -35.0572 -35.0395 -35.0193
   -35.0121 -35.0049 -34.9908 -34.9876 -34.9799 -34.9778 -34.9739 -34.9694
   -34.9616 -34.9422 -34.9282 -34.9209 -34.9197 -34.9110 -34.8970 -34.8936
   -34.8851 -34.8634 -34.8593 -34.8489 -34.8434 -34.8294 -34.8270 -34.8218
   -34.8115 -34.8085 -34.8072 -34.7949   8.8096  10.8807  11.1714  12.4048
    12.6257  12.6365  13.0789  13.1773  13.1872  13.3192  13.3515  13.4610
    13.8016  13.9094  13.9892  14.1729  14.3137  14.4507  14.5162  14.7371
    14.7725  14.8130  14.8775  14.9086  15.0192  15.1274  15.1696  15.3390
    15.3945  15.4552  15.5199  15.6134  15.6415  15.7495  15.7766  15.8065
    15.9179  15.9447  16.0131  16.0707  16.1279  16.1981  16.3147  16.4267
    16.4899  16.5250  16.7005  16.8348  16.9029  16.9654  17.1328  17.2281
    17.2603  17.3130  17.3980  17.6231  17.6981  17.7623  17.8766  17.9137
    17.9506  17.9999  18.0675  18.1110  18.1424  18.2185  18.2309  18.2611
    18.2719  18.2984  18.3579  18.3824  18.4410  18.4738  18.4993  18.5205
    18.5401  18.5994  18.9941  19.0106  19.0497  19.4152  19.5170  19.7169
    19.8482

          k = 0.2500-0.2500 0.2500 (  6493 PWs)   bands (ev):

   -86.7216 -68.9404 -68.9306 -68.9289 -68.8766 -68.8719 -68.8667 -68.8561
   -68.8526 -68.8496 -68.8430 -68.8350 -68.8274 -68.8183 -68.8030 -46.9272
   -46.9267 -46.8526 -35.1751 -35.1696 -35.1669 -35.1436 -35.1363 -35.1320
   -35.1260 -35.1102 -35.0835 -35.0663 -35.0642 -35.0553 -35.0462 -35.0379
   -35.0290 -35.0251 -35.0139 -34.9986 -34.9948 -34.9794 -34.9773 -34.9397
   -34.9385 -34.9280 -34.9234 -34.9227 -34.9129 -34.9091 -34.9039 -34.8953
   -34.8789 -34.8619 -34.8512 -34.8505 -34.8399 -34.8247 -34.8230 -34.8201
   -34.8174 -34.8099 -34.8087 -34.8049   9.1064  11.1045  11.2057  11.5013
    12.5618  12.5985  12.8464  13.4633  13.5197  13.5565  13.6243  13.6319
    13.9244  13.9612  14.0677  14.1889  14.2824  14.3608  14.5052  14.6341
    14.7869  14.8221  14.8684  14.9198  14.9796  15.0539  15.1580  15.2829
    15.3153  15.3630  15.3882  15.4829  15.5376  15.5925  15.6233  15.7014
    15.7484  15.7848  15.8368  15.8534  16.0011  16.0322  16.0945  16.2681
    16.5219  16.5419  16.6718  16.8453  16.8956  17.1058  17.1561  17.3996
    17.4258  17.4574  17.5029  17.6038  17.6884  17.7696  17.8520  17.9366
    17.9602  17.9814  18.0549  18.0942  18.1037  18.2203  18.2481  18.2719
    18.2728  18.3096  18.3417  18.3563  18.4351  18.4746  18.4812  18.5265
    18.5542  18.5855  18.6237  18.9628  18.9657  19.0283  20.2027  20.2550
    20.4331

          k = 0.2500-0.2500-0.5000 (  6456 PWs)   bands (ev):

   -86.7216 -68.9368 -68.9334 -68.9288 -68.8749 -68.8747 -68.8685 -68.8565
   -68.8532 -68.8493 -68.8423 -68.8350 -68.8230 -68.8186 -68.8048 -46.9181
   -46.9175 -46.8450 -35.1571 -35.1512 -35.1501 -35.1472 -35.1394 -35.1263
   -35.1165 -35.1023 -35.0891 -35.0811 -35.0744 -35.0627 -35.0557 -35.0460
   -35.0290 -35.0176 -35.0141 -34.9992 -34.9951 -34.9895 -34.9830 -34.9501
   -34.9399 -34.9303 -34.9177 -34.9040 -34.9030 -34.8957 -34.8935 -34.8802
   -34.8765 -34.8571 -34.8528 -34.8488 -34.8383 -34.8276 -34.8260 -34.8225
   -34.8190 -34.8135 -34.8088 -34.8054   9.8174  10.1253  11.6839  11.8340
    11.9167  12.2878  13.1601  13.5342  13.6522  13.7619  13.8288  13.8692
    13.9050  13.9502  14.1330  14.1660  14.2968  14.3949  14.4900  14.5921
    14.7458  14.8394  14.9064  14.9320  14.9726  15.0128  15.0906  15.1503
    15.1853  15.2427  15.3480  15.4124  15.4494  15.4755  15.4988  15.5392
    15.5984  15.6838  15.6978  15.7610  15.8093  15.8570  15.9155  16.2881
    16.3817  16.5885  16.6965  16.8147  16.9672  17.0063  17.3658  17.3987
    17.4521  17.5286  17.6104  17.7101  17.7574  17.8083  17.8292  17.9166
    17.9804  18.0047  18.0500  18.0998  18.1789  18.1949  18.2145  18.2795
    18.3187  18.3348  18.3466  18.3646  18.4010  18.4348  18.4582  18.5254
    18.5464  18.5657  18.5877  18.6068  18.6609  19.7836  20.0028  20.7461
    20.8309

     the Fermi energy is    16.2260 ev

!    total energy              =   -3807.99007638 Ry
     estimated scf accuracy    <       0.00000008 Ry
     smearing contrib. (-TS)   =       0.01639751 Ry
     internal energy E=F+TS    =   -3808.00647389 Ry

     The total energy is F=E-TS. E is the sum of the following terms:
     one-electron contribution =   -1968.60943316 Ry
     hartree contribution      =    1110.45777640 Ry
     xc contribution           =    -422.87101215 Ry
     ewald contribution        =   -2526.98380498 Ry

     total magnetization       =    36.56 Bohr mag/cell
     absolute magnetization    =    39.00 Bohr mag/cell

     convergence has been achieved in  20 iterations

     negative rho (up, down):  0.000E+00 2.165E-03

     Forces acting on atoms (cartesian axes, Ry/au):

     atom    1 type  2   force =     0.00226285    0.00226285    0.00226285
     atom    2 type  1   force =    -0.00649414    0.00621741    0.00621741
     atom    3 type  1   force =     0.00621741   -0.00649414    0.00621741
     atom    4 type  1   force =    -0.00368631   -0.00368631    0.00596302
     atom    5 type  1   force =     0.00621741    0.00621741   -0.00649414
     atom    6 type  1   force =    -0.00368631    0.00596302   -0.00368631
     atom    7 type  1   force =     0.00596302   -0.00368631   -0.00368631
     atom    8 type  1   force =    -0.00794007   -0.00794007   -0.00794007
     atom    9 type  1   force =     0.00313336   -0.00124275   -0.00124275
     atom   10 type  1   force =    -0.00124275    0.00313336   -0.00124275
     atom   11 type  1   force =    -0.00140530   -0.00140530    0.00126328
     atom   12 type  1   force =    -0.00124275   -0.00124275    0.00313336
     atom   13 type  1   force =    -0.00140530    0.00126328   -0.00140530
     atom   14 type  1   force =     0.00126328   -0.00140530   -0.00140530
     atom   15 type  1   force =     0.00204561    0.00204561    0.00204561

     Total force =     0.028619     Total SCF correction =     0.000871
     Energy error            =      3.2E-03 Ry
     Gradient error          =      7.9E-03 Ry/Bohr

     number of scf cycles    =   4
     number of bfgs steps    =   3

     energy             old  =   -3807.9869253732 Ry
     energy             new  =   -3807.9900763838 Ry

     CASE: energy            _new < energy            _old

     new trust radius        =       0.0669004492 bohr
     new conv_thr            =       0.0000000794 Ry


ATOMIC_POSITIONS (crystal)
Ni               0.0034629349        0.0034629349        0.0034629349
Fe               0.4925116839        0.0063276837        0.0063276837
Fe               0.0063276837        0.4925116839        0.0063276837
Fe               0.4953476453        0.4953476453        0.0067778968
Fe               0.0063276837        0.0063276837        0.4925116839
Fe               0.4953476453        0.0067778968        0.4953476453
Fe               0.0067778968        0.4953476453        0.4953476453
Fe               0.4910314154        0.4910314154        0.4910314154
Fe               0.7536929884        0.2488375718        0.2488375718
Fe               0.2488375718        0.7536929884        0.2488375718
Fe               0.7486392876        0.7486392876        0.2511109152
Fe               0.2488375718        0.2488375718        0.7536929884
Fe               0.7486392876        0.2511109152        0.7486392876
Fe               0.2511109152        0.7486392876        0.7486392876
Fe               0.7531077886        0.7531077886        0.7531077886



     Writing config-only to output data dir ./outdir/fe15_ni1_end.save/ :
     XML data file
     NEW-OLD atomic charge density approx. for the potential

     Check: negative core charge=   -0.000004

     negative rho (up, down):  0.000E+00 1.951E-03
     Generating pointlists ...
     new r_m :   0.1760 (alat units)  1.9063 (a.u.) for type    1
     new r_m :   0.1764 (alat units)  1.9104 (a.u.) for type    2

     total cpu time spent up to now is     2466.6 secs

     per-process dynamical memory:   178.6 Mb

     Self-consistent Calculation

     iteration #  1     ecut=    45.00 Ry     beta= 0.10
     Davidson diagonalization with overlap
     ethr =  1.00E-06,  avg # of iterations = 10.1

     negative rho (up, down):  0.000E+00 1.946E-03

     total cpu time spent up to now is     2536.0 secs

     total energy              =   -3807.99519116 Ry
     estimated scf accuracy    <       0.05727511 Ry

     total magnetization       =    36.67 Bohr mag/cell
     absolute magnetization    =    39.16 Bohr mag/cell

     iteration #  2     ecut=    45.00 Ry     beta= 0.10
     Davidson diagonalization with overlap
     ethr =  2.37E-05,  avg # of iterations =  2.0

     negative rho (up, down):  0.000E+00 1.950E-03

     total cpu time spent up to now is     2558.3 secs

     total energy              =   -3807.98248113 Ry
     estimated scf accuracy    <       0.55227065 Ry

     total magnetization       =    36.64 Bohr mag/cell
     absolute magnetization    =    39.66 Bohr mag/cell

     iteration #  3     ecut=    45.00 Ry     beta= 0.10
     Davidson diagonalization with overlap
     ethr =  2.37E-05,  avg # of iterations =  2.0

     negative rho (up, down):  0.000E+00 1.941E-03

     total cpu time spent up to now is     2580.9 secs

     total energy              =   -3807.98786985 Ry
     estimated scf accuracy    <       0.02721820 Ry

     total magnetization       =    36.64 Bohr mag/cell
     absolute magnetization    =    39.12 Bohr mag/cell

     iteration #  4     ecut=    45.00 Ry     beta= 0.10
     Davidson diagonalization with overlap
     ethr =  1.12E-05,  avg # of iterations =  1.5

     negative rho (up, down):  0.000E+00 1.920E-03

     total cpu time spent up to now is     2601.0 secs

     total energy              =   -3807.98896791 Ry
     estimated scf accuracy    <       0.00622708 Ry

     total magnetization       =    36.62 Bohr mag/cell
     absolute magnetization    =    39.08 Bohr mag/cell

     iteration #  5     ecut=    45.00 Ry     beta= 0.10
     Davidson diagonalization with overlap
     ethr =  2.57E-06,  avg # of iterations =  1.1

     negative rho (up, down):  0.000E+00 1.868E-03

     total cpu time spent up to now is     2620.0 secs

     total energy              =   -3807.98947142 Ry
     estimated scf accuracy    <       0.00192330 Ry

     total magnetization       =    36.58 Bohr mag/cell
     absolute magnetization    =    39.05 Bohr mag/cell

     iteration #  6     ecut=    45.00 Ry     beta= 0.10
     Davidson diagonalization with overlap
     ethr =  7.95E-07,  avg # of iterations =  2.0

     negative rho (up, down):  0.000E+00 1.846E-03

     total cpu time spent up to now is     2642.7 secs

     total energy              =   -3807.99022242 Ry
     estimated scf accuracy    <       0.00116435 Ry

     total magnetization       =    36.59 Bohr mag/cell
     absolute magnetization    =    39.06 Bohr mag/cell

     iteration #  7     ecut=    45.00 Ry     beta= 0.10
     Davidson diagonalization with overlap
     ethr =  4.81E-07,  avg # of iterations =  2.2

     negative rho (up, down):  0.000E+00 1.850E-03

     total cpu time spent up to now is     2664.3 secs

     total energy              =   -3807.99074741 Ry
     estimated scf accuracy    <       0.00003899 Ry

     total magnetization       =    36.59 Bohr mag/cell
     absolute magnetization    =    39.06 Bohr mag/cell

     iteration #  8     ecut=    45.00 Ry     beta= 0.10
     Davidson diagonalization with overlap
     ethr =  1.61E-08,  avg # of iterations =  4.9

     negative rho (up, down):  0.000E+00 1.853E-03

     total cpu time spent up to now is     2692.4 secs

     total energy              =   -3807.99119741 Ry
     estimated scf accuracy    <       0.00006752 Ry

     total magnetization       =    36.59 Bohr mag/cell
     absolute magnetization    =    39.06 Bohr mag/cell

     iteration #  9     ecut=    45.00 Ry     beta= 0.10
     Davidson diagonalization with overlap
     ethr =  1.61E-08,  avg # of iterations =  1.8

     negative rho (up, down):  0.000E+00 1.853E-03

     total cpu time spent up to now is     2713.8 secs

     total energy              =   -3807.99149029 Ry
     estimated scf accuracy    <       0.00004122 Ry

     total magnetization       =    36.59 Bohr mag/cell
     absolute magnetization    =    39.06 Bohr mag/cell

     iteration # 10     ecut=    45.00 Ry     beta= 0.10
     Davidson diagonalization with overlap
     ethr =  1.61E-08,  avg # of iterations =  2.0

     negative rho (up, down):  0.000E+00 1.856E-03

     total cpu time spent up to now is     2736.3 secs

     total energy              =   -3807.99167048 Ry
     estimated scf accuracy    <       0.00015265 Ry

     total magnetization       =    36.59 Bohr mag/cell
     absolute magnetization    =    39.06 Bohr mag/cell

     iteration # 11     ecut=    45.00 Ry     beta= 0.10
     Davidson diagonalization with overlap
     ethr =  1.61E-08,  avg # of iterations =  2.0

     negative rho (up, down):  0.000E+00 1.855E-03

     total cpu time spent up to now is     2759.1 secs

     total energy              =   -3807.99190220 Ry
     estimated scf accuracy    <       0.00003355 Ry

     total magnetization       =    36.59 Bohr mag/cell
     absolute magnetization    =    39.06 Bohr mag/cell

     iteration # 12     ecut=    45.00 Ry     beta= 0.10
     Davidson diagonalization with overlap
     ethr =  1.39E-08,  avg # of iterations =  1.0

     negative rho (up, down):  0.000E+00 1.856E-03

     total cpu time spent up to now is     2778.1 secs

     total energy              =   -3807.99207717 Ry
     estimated scf accuracy    <       0.00003554 Ry

     total magnetization       =    36.59 Bohr mag/cell
     absolute magnetization    =    39.06 Bohr mag/cell

     iteration # 13     ecut=    45.00 Ry     beta= 0.10
     Davidson diagonalization with overlap
     ethr =  1.39E-08,  avg # of iterations =  2.0

     negative rho (up, down):  0.000E+00 1.857E-03

     total cpu time spent up to now is     2801.8 secs

     total energy              =   -3807.99227022 Ry
     estimated scf accuracy    <       0.00039958 Ry

     total magnetization       =    36.59 Bohr mag/cell
     absolute magnetization    =    39.06 Bohr mag/cell

     iteration # 14     ecut=    45.00 Ry     beta= 0.10
     Davidson diagonalization with overlap
     ethr =  1.39E-08,  avg # of iterations =  1.8

     negative rho (up, down):  0.000E+00 1.858E-03

     total cpu time spent up to now is     2822.6 secs

     total energy              =   -3807.99242515 Ry
     estimated scf accuracy    <       0.00067723 Ry

     total magnetization       =    36.59 Bohr mag/cell
     absolute magnetization    =    39.06 Bohr mag/cell

     iteration # 15     ecut=    45.00 Ry     beta= 0.10
     Davidson diagonalization with overlap
     ethr =  1.39E-08,  avg # of iterations =  2.0

     negative rho (up, down):  0.000E+00 1.858E-03

     total cpu time spent up to now is     2844.9 secs

     total energy              =   -3807.99253101 Ry
     estimated scf accuracy    <       0.00035579 Ry

     total magnetization       =    36.59 Bohr mag/cell
     absolute magnetization    =    39.06 Bohr mag/cell

     iteration # 16     ecut=    45.00 Ry     beta= 0.10
     Davidson diagonalization with overlap
     ethr =  1.39E-08,  avg # of iterations =  1.6

     negative rho (up, down):  0.000E+00 1.858E-03

     total cpu time spent up to now is     2865.2 secs

     total energy              =   -3807.99260983 Ry
     estimated scf accuracy    <       0.00055343 Ry

     total magnetization       =    36.59 Bohr mag/cell
     absolute magnetization    =    39.06 Bohr mag/cell

     iteration # 17     ecut=    45.00 Ry     beta= 0.10
     Davidson diagonalization with overlap
     ethr =  1.39E-08,  avg # of iterations =  1.9

     negative rho (up, down):  0.000E+00 1.858E-03

     total cpu time spent up to now is     2886.5 secs

     total energy              =   -3807.99266153 Ry
     estimated scf accuracy    <       0.00030125 Ry

     total magnetization       =    36.59 Bohr mag/cell
     absolute magnetization    =    39.06 Bohr mag/cell

     iteration # 18     ecut=    45.00 Ry     beta= 0.10
     Davidson diagonalization with overlap
     ethr =  1.39E-08,  avg # of iterations =  1.0

     negative rho (up, down):  0.000E+00 1.857E-03

     total cpu time spent up to now is     2905.4 secs

     total energy              =   -3807.99269661 Ry
     estimated scf accuracy    <       0.00025016 Ry

     total magnetization       =    36.59 Bohr mag/cell
     absolute magnetization    =    39.06 Bohr mag/cell

     iteration # 19     ecut=    45.00 Ry     beta= 0.10
     Davidson diagonalization with overlap
     ethr =  1.39E-08,  avg # of iterations =  1.0

     negative rho (up, down):  0.000E+00 1.858E-03

     total cpu time spent up to now is     2924.4 secs

     total energy              =   -3807.99271984 Ry
     estimated scf accuracy    <       0.00024638 Ry

     total magnetization       =    36.59 Bohr mag/cell
     absolute magnetization    =    39.06 Bohr mag/cell

     iteration # 20     ecut=    45.00 Ry     beta= 0.10
     Davidson diagonalization with overlap
     ethr =  1.39E-08,  avg # of iterations =  1.7

     negative rho (up, down):  0.000E+00 1.858E-03

     total cpu time spent up to now is     2945.1 secs

     total energy              =   -3807.99273073 Ry
     estimated scf accuracy    <       0.00010693 Ry

     total magnetization       =    36.59 Bohr mag/cell
     absolute magnetization    =    39.06 Bohr mag/cell

     iteration # 21     ecut=    45.00 Ry     beta= 0.10
     Davidson diagonalization with overlap
     ethr =  1.39E-08,  avg # of iterations =  2.0

     negative rho (up, down):  0.000E+00 1.859E-03

     total cpu time spent up to now is     2967.6 secs

     total energy              =   -3807.99273855 Ry
     estimated scf accuracy    <       0.00000074 Ry

     total magnetization       =    36.59 Bohr mag/cell
     absolute magnetization    =    39.06 Bohr mag/cell

     iteration # 22     ecut=    45.00 Ry     beta= 0.10
     Davidson diagonalization with overlap
     ethr =  3.05E-10,  avg # of iterations =  3.6

     negative rho (up, down):  0.000E+00 1.859E-03

     total cpu time spent up to now is     2993.8 secs

     total energy              =   -3807.99274077 Ry
     estimated scf accuracy    <       0.00000669 Ry

     total magnetization       =    36.59 Bohr mag/cell
     absolute magnetization    =    39.06 Bohr mag/cell

     iteration # 23     ecut=    45.00 Ry     beta= 0.10
     Davidson diagonalization with overlap
     ethr =  3.05E-10,  avg # of iterations =  3.1

     negative rho (up, down):  0.000E+00 1.859E-03

     total cpu time spent up to now is     3019.2 secs

     total energy              =   -3807.99274442 Ry
     estimated scf accuracy    <       0.00001389 Ry

     total magnetization       =    36.59 Bohr mag/cell
     absolute magnetization    =    39.06 Bohr mag/cell

     iteration # 24     ecut=    45.00 Ry     beta= 0.10
     Davidson diagonalization with overlap
     ethr =  3.05E-10,  avg # of iterations =  2.7

     negative rho (up, down):  0.000E+00 1.859E-03

     total cpu time spent up to now is     3044.5 secs

     total energy              =   -3807.99274811 Ry
     estimated scf accuracy    <       0.00000132 Ry

     total magnetization       =    36.59 Bohr mag/cell
     absolute magnetization    =    39.06 Bohr mag/cell

     iteration # 25     ecut=    45.00 Ry     beta= 0.10
     Davidson diagonalization with overlap
     ethr =  3.05E-10,  avg # of iterations =  2.0

     negative rho (up, down):  0.000E+00 1.858E-03

     Magnetic moment per site  (integrated on atomic sphere of radius R)
     atom   1 (R=0.176)  charge= 16.5648  magn=  0.9580
     atom   2 (R=0.176)  charge= 14.2990  magn=  2.6034
     atom   3 (R=0.176)  charge= 14.2990  magn=  2.6034
     atom   4 (R=0.176)  charge= 14.2909  magn=  2.6559
     atom   5 (R=0.176)  charge= 14.2990  magn=  2.6034
     atom   6 (R=0.176)  charge= 14.2909  magn=  2.6559
     atom   7 (R=0.176)  charge= 14.2909  magn=  2.6559
     atom   8 (R=0.176)  charge= 14.2840  magn=  2.6883
     atom   9 (R=0.176)  charge= 14.3578  magn=  2.4549
     atom  10 (R=0.176)  charge= 14.3578  magn=  2.4549
     atom  11 (R=0.176)  charge= 14.3016  magn=  2.6493
     atom  12 (R=0.176)  charge= 14.3578  magn=  2.4549
     atom  13 (R=0.176)  charge= 14.3016  magn=  2.6493
     atom  14 (R=0.176)  charge= 14.3016  magn=  2.6493
     atom  15 (R=0.176)  charge= 14.2628  magn=  2.7689

     total cpu time spent up to now is     3066.6 secs

     End of self-consistent calculation

 ------ SPIN UP ------------


          k = 0.0000 0.0000 0.0000 (  6451 PWs)   bands (ev):

   -88.0642 -72.3475 -72.2547 -72.2431 -72.2431 -72.1894 -72.1884 -72.1884
   -72.1828 -72.0995 -72.0989 -72.0989 -71.9246 -71.9246 -71.9187 -48.2680
   -48.2680 -48.1569 -38.4578 -38.3863 -38.3863 -38.3340 -38.3340 -38.3271
   -38.3229 -38.2874 -38.2874 -38.2780 -38.2693 -38.2562 -38.2475 -38.2475
   -38.2169 -38.2169 -38.1883 -38.1646 -38.1646 -38.1514 -38.1514 -38.1235
   -38.1235 -38.1083 -38.1082 -38.0972 -38.0972 -38.0616 -38.0568 -38.0568
   -38.0517 -38.0517 -38.0466 -37.9877 -37.9303 -37.9303 -37.8787 -37.8787
   -37.8203 -37.8177 -37.8174 -37.8174   8.0766  11.3899  11.4180  11.4180
    11.4532  11.5049  11.5049  11.5439  11.5439  11.6683  11.7449  11.7449
    12.0683  12.0683  12.4340  12.7281  12.7371  12.7371  12.8129  12.8129
    12.8304  12.9509  12.9509  12.9860  13.1674  13.1674  13.2159  13.2366
    13.4135  13.4135  13.4540  13.6346  13.6346  13.8022  13.8111  13.8111
    14.0424  14.0424  14.0624  14.1515  14.1515  14.1536  14.1737  14.1737
    14.2282  14.5575  14.5754  14.5754  14.7312  14.8284  14.8284  14.8459
    14.8459  14.9553  15.0200  15.0233  15.0233  15.0856  15.0856  15.1367
    15.1367  15.1877  15.1877  15.1988  15.1988  15.2185  15.2402  15.4653
    15.5911  15.5911  16.0030  16.0030  16.0415  16.0415  16.1385  16.1385
    16.1612  16.1807  16.2992  16.2992  16.3451  16.5671  16.5937  16.5937
    16.6503

          k = 0.0000 0.0000 0.2500 (  6495 PWs)   bands (ev):

   -88.0643 -72.3475 -72.2535 -72.2446 -72.2432 -72.1902 -72.1885 -72.1873
   -72.1832 -72.1000 -72.0991 -72.0985 -71.9248 -71.9240 -71.9193 -48.2811
   -48.2767 -48.1676 -38.4588 -38.3873 -38.3854 -38.3382 -38.3351 -38.3292
   -38.3218 -38.2940 -38.2855 -38.2778 -38.2678 -38.2558 -38.2477 -38.2442
   -38.2245 -38.2203 -38.1924 -38.1777 -38.1775 -38.1657 -38.1415 -38.1408
   -38.1272 -38.1187 -38.1039 -38.0979 -38.0902 -38.0603 -38.0562 -38.0498
   -38.0478 -38.0362 -38.0351 -37.9833 -37.9414 -37.9369 -37.8763 -37.8739
   -37.8313 -37.8297 -37.8264 -37.8247   8.3757  10.5318  11.4968  11.5009
    11.5314  11.5758  11.5960  11.6225  11.6899  11.7715  11.8213  11.8601
    12.1242  12.1710  12.4512  12.6459  12.6831  12.6909  12.7401  12.7744
    12.8615  12.8790  12.9277  13.1009  13.1016  13.1519  13.2044  13.2561
    13.3139  13.5648  13.5727  13.6246  13.7282  13.7381  13.7643  13.7838
    13.8174  13.8503  13.9207  14.0866  14.0918  14.2743  14.3166  14.3731
    14.3868  14.4743  14.5324  14.5835  14.5938  14.6201  14.6472  14.7329
    14.7902  14.8633  14.9323  14.9610  15.0277  15.0297  15.0861  15.1026
    15.1051  15.1304  15.1469  15.1601  15.1792  15.1834  15.2285  15.2814
    15.3220  15.4762  15.5243  15.5399  15.6048  15.9037  16.0514  16.0794
    16.1014  16.1590  16.2774  16.2794  16.4401  16.6305  16.7841  16.8569
    17.0116

          k = 0.0000 0.0000-0.5000 (  6480 PWs)   bands (ev):

   -88.0643 -72.3474 -72.2515 -72.2468 -72.2432 -72.1906 -72.1885 -72.1861
   -72.1838 -72.1003 -72.0991 -72.0982 -71.9248 -71.9226 -71.9206 -48.2810
   -48.2720 -48.1648 -38.4561 -38.3813 -38.3749 -38.3411 -38.3272 -38.3266
   -38.2997 -38.2979 -38.2974 -38.2836 -38.2688 -38.2548 -38.2469 -38.2395
   -38.2306 -38.2296 -38.1963 -38.1894 -38.1816 -38.1797 -38.1488 -38.1403
   -38.1374 -38.1171 -38.0984 -38.0984 -38.0860 -38.0610 -38.0515 -38.0460
   -38.0446 -38.0233 -38.0210 -37.9753 -37.9489 -37.9372 -37.8697 -37.8615
   -37.8412 -37.8391 -37.8283 -37.8254   9.1217   9.4108  11.6105  11.6291
    11.6419  11.7098  11.7686  11.7844  11.8315  11.8844  11.9342  12.0476
    12.0601  12.1958  12.3298  12.3483  12.4085  12.6369  12.6425  12.6514
    12.9580  12.9617  13.2168  13.2379  13.2716  13.2730  13.2785  13.4148
    13.4422  13.4865  13.5601  13.6035  13.6136  13.6347  13.6577  13.7326
    13.7579  13.7823  13.8023  13.9318  13.9431  14.1145  14.1854  14.2096
    14.2652  14.3277  14.3916  14.4586  14.5201  14.5405  14.6352  14.6641
    14.7033  14.7664  14.7719  14.9281  15.0136  15.0531  15.0738  15.0829
    15.0893  15.1161  15.1574  15.1723  15.1862  15.2027  15.2076  15.2563
    15.4210  15.5226  15.6503  15.6686  15.6703  15.7474  15.7570  15.8134
    15.8919  16.2449  16.4199  16.4468  16.5329  16.6167  16.6674  16.7255
    16.7303

          k = 0.0000 0.2500 0.2500 (  6500 PWs)   bands (ev):

   -88.0643 -72.3474 -72.2521 -72.2455 -72.2438 -72.1907 -72.1876 -72.1872
   -72.1836 -72.1000 -72.0992 -72.0984 -71.9244 -71.9236 -71.9201 -48.2817
   -48.2759 -48.1712 -38.4578 -38.3831 -38.3794 -38.3379 -38.3296 -38.3290
   -38.3160 -38.2995 -38.2862 -38.2848 -38.2726 -38.2544 -38.2499 -38.2392
   -38.2351 -38.2208 -38.1888 -38.1829 -38.1760 -38.1606 -38.1455 -38.1398
   -38.1335 -38.1280 -38.1116 -38.1040 -38.0863 -38.0601 -38.0601 -38.0450
   -38.0416 -38.0377 -38.0334 -37.9745 -37.9423 -37.9393 -37.8694 -37.8636
   -37.8405 -37.8298 -37.8297 -37.8251   8.6749  10.6464  10.7973  11.4185
    11.6794  11.6902  11.7064  11.7355  11.8095  11.9095  11.9462  11.9951
    12.2351  12.2451  12.5031  12.5622  12.6097  12.6993  12.7906  12.8265
    12.8676  12.9124  12.9538  12.9658  13.0198  13.0319  13.2130  13.2893
    13.3873  13.4033  13.5027  13.5905  13.5910  13.6842  13.7056  13.7935
    13.7941  13.9101  13.9332  14.0507  14.1146  14.2279  14.2541  14.3018
    14.3373  14.3593  14.4214  14.4304  14.5243  14.5746  14.6265  14.6413
    14.6746  14.7474  14.7917  14.8242  14.9057  14.9716  15.0117  15.0376
    15.0687  15.0854  15.1098  15.1758  15.1825  15.2225  15.2778  15.3472
    15.3555  15.3901  15.4005  15.4842  15.5167  15.5174  15.5677  15.7198
    15.7970  15.8064  16.0785  16.5279  16.5539  17.6023  17.6576  17.8319
    17.9872

          k = 0.0000 0.2500-0.5000 (  6452 PWs)   bands (ev):

   -88.0642 -72.3473 -72.2505 -72.2468 -72.2441 -72.1912 -72.1875 -72.1860
   -72.1841 -72.1002 -72.0992 -72.0981 -71.9241 -71.9226 -71.9211 -48.2718
   -48.2656 -48.1573 -38.4533 -38.3758 -38.3701 -38.3412 -38.3268 -38.3251
   -38.3058 -38.2974 -38.2940 -38.2832 -38.2722 -38.2584 -38.2475 -38.2418
   -38.2339 -38.2221 -38.1874 -38.1757 -38.1730 -38.1670 -38.1463 -38.1403
   -38.1293 -38.1212 -38.1040 -38.0986 -38.0840 -38.0647 -38.0588 -38.0494
   -38.0442 -38.0321 -38.0297 -37.9638 -37.9466 -37.9384 -37.8613 -37.8533
   -37.8407 -37.8361 -37.8276 -37.8231   9.3945   9.6618  11.0490  11.2477
    11.8271  11.8761  11.9665  11.9909  12.0161  12.0322  12.0557  12.1433
    12.1718  12.2828  12.3554  12.4149  12.4812  12.6624  12.7457  12.7539
    12.9560  12.9863  13.0562  13.1003  13.1138  13.1372  13.2029  13.2942
    13.3431  13.4055  13.5291  13.5488  13.5694  13.6031  13.6435  13.6541
    13.6848  13.7634  13.7820  13.8471  13.9215  13.9641  14.0141  14.1139
    14.1552  14.3171  14.4533  14.4712  14.4815  14.5259  14.6445  14.6743
    14.7079  14.7292  14.7565  14.7775  14.8178  14.8745  14.9233  15.0017
    15.0427  15.0616  15.1093  15.1531  15.1569  15.2034  15.2245  15.2352
    15.2918  15.3456  15.3695  15.3984  15.4654  15.4738  15.5109  15.6532
    15.7644  15.9555  16.0951  17.0238  17.0762  17.1369  17.2263  18.7275
    18.8138

          k = 0.0000-0.5000-0.5000 (  6496 PWs)   bands (ev):

   -88.0643 -72.3473 -72.2487 -72.2477 -72.2452 -72.1917 -72.1868 -72.1860
   -72.1846 -72.1003 -72.0994 -72.0980 -71.9230 -71.9227 -71.9223 -48.2833
   -48.2753 -48.1677 -38.4525 -38.3735 -38.3632 -38.3456 -38.3271 -38.3251
   -38.3167 -38.2983 -38.2949 -38.2865 -38.2798 -38.2694 -38.2485 -38.2425
   -38.2343 -38.2232 -38.1826 -38.1732 -38.1666 -38.1475 -38.1436 -38.1426
   -38.1382 -38.1110 -38.1093 -38.1024 -38.0968 -38.0829 -38.0710 -38.0580
   -38.0510 -38.0400 -38.0368 -37.9553 -37.9493 -37.9431 -37.8555 -37.8459
   -37.8459 -37.8346 -37.8343 -37.8225  10.0783  10.1536  10.1900  10.6668
    12.0514  12.0706  12.0948  12.1637  12.2248  12.2260  12.2376  12.2820
    12.3440  12.3701  12.5490  12.5663  12.6261  12.6274  12.6737  12.6892
    12.8229  12.8766  12.8914  12.9015  12.9257  12.9973  13.0251  13.2495
    13.3351  13.3647  13.4287  13.4580  13.5058  13.5294  13.5452  13.5535
    13.6179  13.6793  13.6991  13.7098  13.7665  13.7696  13.8968  14.0627
    14.1243  14.2857  14.3232  14.4258  14.5195  14.5948  14.6159  14.6543
    14.6894  14.7091  14.7466  14.7606  14.8037  14.8258  14.8396  14.9122
    14.9236  14.9512  15.0011  15.0424  15.0528  15.0739  15.1361  15.1631
    15.1632  15.2155  15.2268  15.3005  15.3725  15.4064  15.4323  15.6778
    15.7877  16.0476  16.2025  17.8296  17.8711  17.9723  18.1000  18.1292
    18.2804

          k = 0.2500 0.2500 0.2500 (  6493 PWs)   bands (ev):

   -88.0643 -72.3473 -72.2507 -72.2454 -72.2454 -72.1906 -72.1872 -72.1872
   -72.1840 -72.0992 -72.0992 -72.0992 -71.9235 -71.9235 -71.9210 -48.2787
   -48.2787 -48.1671 -38.4555 -38.3751 -38.3751 -38.3384 -38.3259 -38.3259
   -38.3082 -38.3033 -38.2870 -38.2870 -38.2778 -38.2506 -38.2506 -38.2386
   -38.2386 -38.2320 -38.1814 -38.1814 -38.1802 -38.1554 -38.1554 -38.1354
   -38.1354 -38.1302 -38.1180 -38.0897 -38.0897 -38.0639 -38.0639 -38.0578
   -38.0366 -38.0336 -38.0336 -37.9687 -37.9427 -37.9427 -37.8590 -37.8590
   -37.8463 -37.8292 -37.8284 -37.8284   8.9666  10.8655  10.8655  11.0618
    11.6173  11.6173  11.6893  11.9013  11.9013  12.0109  12.1276  12.1276
    12.3959  12.3959  12.5404  12.5641  12.6008  12.7240  12.7240  12.8436
    12.8436  12.9127  12.9578  13.0057  13.0057  13.1175  13.1175  13.2768
    13.3502  13.3502  13.3549  13.4397  13.4397  13.5913  13.5913  13.7072
    13.7072  13.7392  13.7989  13.9144  13.9144  13.9919  14.1601  14.1601
    14.2511  14.2511  14.3483  14.5535  14.5543  14.5543  14.6061  14.7082
    14.7082  14.7727  14.8291  14.8465  14.8465  14.9131  14.9738  14.9738
    15.0591  15.0591  15.0591  15.1573  15.1573  15.1933  15.1996  15.1996
    15.2305  15.3215  15.3215  15.5417  15.5417  15.6017  15.6879  15.6879
    15.7300  15.7300  15.8609  16.5741  16.5741  16.6460  18.5272  18.5272
    18.7259

          k = 0.2500 0.2500-0.5000 (  6456 PWs)   bands (ev):

   -88.0642 -72.3472 -72.2495 -72.2465 -72.2453 -72.1913 -72.1872 -72.1861
   -72.1844 -72.1000 -72.0992 -72.0984 -71.9235 -71.9227 -71.9216 -48.2732
   -48.2675 -48.1572 -38.4515 -38.3706 -38.3663 -38.3404 -38.3255 -38.3237
   -38.3042 -38.2968 -38.2930 -38.2871 -38.2738 -38.2561 -38.2538 -38.2376
   -38.2347 -38.2249 -38.1804 -38.1792 -38.1732 -38.1593 -38.1477 -38.1431
   -38.1263 -38.1258 -38.1102 -38.1031 -38.0995 -38.0646 -38.0560 -38.0543
   -38.0366 -38.0361 -38.0254 -37.9617 -37.9485 -37.9415 -37.8600 -37.8514
   -37.8441 -37.8348 -37.8267 -37.8245   9.6700   9.9180  11.2807  11.2957
    11.3801  11.5836  12.1283  12.1549  12.1845  12.1888  12.2005  12.2118
    12.2864  12.3614  12.3975  12.5155  12.5756  12.6886  12.7623  12.8562
    12.9540  12.9801  12.9989  13.0398  13.0484  13.1119  13.1539  13.1909
    13.2199  13.2871  13.3856  13.4338  13.4498  13.4648  13.4948  13.5226
    13.5442  13.5650  13.5684  13.6126  13.7138  13.7966  13.8221  13.9578
    14.0658  14.2119  14.3560  14.4007  14.5796  14.6240  14.6525  14.7046
    14.7352  14.7398  14.7933  14.8178  14.8397  14.9282  14.9739  15.0361
    15.0427  15.0852  15.1176  15.1178  15.1575  15.1903  15.1912  15.2338
    15.2445  15.3402  15.3698  15.4099  15.4745  15.7038  15.7084  15.7650
    15.8244  15.8528  15.9044  15.9962  16.0381  17.6994  17.9163  19.2294
    19.2432

          k = 0.2500-0.5000-0.5000 (  6472 PWs)   bands (ev):

   -88.0643 -72.3472 -72.2482 -72.2475 -72.2456 -72.1919 -72.1865 -72.1861
   -72.1847 -72.1000 -72.0993 -72.0983 -71.9232 -71.9224 -71.9223 -48.2736
   -48.2729 -48.1621 -38.4494 -38.3646 -38.3586 -38.3426 -38.3248 -38.3239
   -38.3089 -38.2947 -38.2895 -38.2843 -38.2757 -38.2631 -38.2530 -38.2375
   -38.2327 -38.2258 -38.1755 -38.1743 -38.1675 -38.1522 -38.1517 -38.1418
   -38.1406 -38.1287 -38.1268 -38.1178 -38.1114 -38.0587 -38.0528 -38.0475
   -38.0389 -38.0297 -38.0274 -37.9582 -37.9523 -37.9474 -37.8577 -37.8506
   -37.8499 -37.8348 -37.8296 -37.8264  10.3419  10.4263  10.4550  10.8776
    11.7822  11.9135  11.9245  12.1884  12.2452  12.2670  12.3206  12.5509
    12.5570  12.5926  12.6112  12.6797  12.6818  12.7006  12.7049  12.7824
    12.7955  12.8719  12.8740  12.9033  12.9546  12.9798  12.9970  13.1163
    13.1488  13.1914  13.1956  13.2950  13.2968  13.3080  13.3623  13.3650
    13.4093  13.4264  13.4356  13.5411  13.5708  13.5797  13.6419  13.6660
    13.7896  14.2228  14.2242  14.2807  14.7015  14.7086  14.7399  14.8173
    14.8332  14.8691  14.8865  14.8918  14.9635  14.9674  15.0018  15.0354
    15.0555  15.1163  15.1198  15.1316  15.1619  15.1804  15.2015  15.2191
    15.2353  15.2501  15.2970  15.3509  15.3967  15.4189  15.4655  15.6124
    15.6611  15.8160  15.9386  16.6831  16.7382  16.7513  16.8963  20.1673
    20.3056

          k =-0.5000-0.5000-0.5000 (  6488 PWs)   bands (ev):

   -88.0643 -72.3471 -72.2475 -72.2475 -72.2464 -72.1921 -72.1862 -72.1862
   -72.1848 -72.0993 -72.0993 -72.0990 -71.9233 -71.9222 -71.9222 -48.2753
   -48.2753 -48.1642 -38.4468 -38.3527 -38.3527 -38.3434 -38.3218 -38.3218
   -38.3098 -38.2868 -38.2868 -38.2787 -38.2763 -38.2541 -38.2541 -38.2345
   -38.2345 -38.2338 -38.1817 -38.1817 -38.1577 -38.1540 -38.1540 -38.1534
   -38.1416 -38.1374 -38.1374 -38.1286 -38.1286 -38.0430 -38.0385 -38.0385
   -38.0352 -38.0246 -38.0246 -37.9575 -37.9575 -37.9568 -37.8590 -37.8529
   -37.8529 -37.8386 -37.8321 -37.8321  10.9531  11.0931  11.0931  11.1342
    11.1884  11.2111  11.2111  12.0964  12.6468  12.6468  12.6844  12.6844
    12.7031  12.7039  12.7127  12.7127  12.7313  12.7627  12.7627  12.8180
    12.8574  12.8574  12.9065  12.9065  12.9742  12.9742  13.0107  13.0369
    13.0369  13.0686  13.1102  13.1296  13.1296  13.1344  13.1686  13.1686
    13.1714  13.1778  13.1778  13.1784  13.2158  13.2236  13.2236  13.5997
    13.5997  14.1667  14.1889  14.1889  14.7566  14.7566  14.8804  14.8804
    14.8859  14.9417  14.9417  14.9864  14.9864  15.0050  15.0323  15.0921
    15.0921  15.1141  15.1377  15.1377  15.2474  15.3218  15.3218  15.3755
    15.3826  15.3826  15.4446  15.4446  15.5152  15.5658  15.5658  15.7126
    15.7126  15.7593  15.8546  16.0381  16.0381  16.0527  16.1057  22.4076
    22.4077

          k =-0.2500 0.0000 0.2500 (  6500 PWs)   bands (ev):

   -88.0643 -72.3474 -72.2525 -72.2448 -72.2441 -72.1910 -72.1879 -72.1867
   -72.1835 -72.1003 -72.0992 -72.0982 -71.9243 -71.9239 -71.9199 -48.2829
   -48.2795 -48.1664 -38.4563 -38.3815 -38.3810 -38.3416 -38.3335 -38.3282
   -38.3130 -38.2997 -38.2868 -38.2842 -38.2656 -38.2598 -38.2515 -38.2453
   -38.2313 -38.2253 -38.1947 -38.1813 -38.1754 -38.1512 -38.1487 -38.1383
   -38.1283 -38.1151 -38.1059 -38.1025 -38.0879 -38.0640 -38.0587 -38.0562
   -38.0452 -38.0383 -38.0350 -37.9755 -37.9436 -37.9395 -37.8735 -37.8650
   -37.8352 -37.8321 -37.8276 -37.8218   8.6752  10.6119  10.8364  11.4112
    11.6805  11.6923  11.7197  11.7640  11.7757  11.9209  11.9325  11.9889
    12.2192  12.2395  12.5071  12.5707  12.6039  12.7128  12.7772  12.8319
    12.8583  12.8963  12.9633  12.9990  13.0180  13.0248  13.2102  13.3113
    13.3972  13.4297  13.5109  13.5312  13.6441  13.6659  13.7089  13.7681
    13.7950  13.8940  13.9232  14.0476  14.1057  14.1969  14.2911  14.3437
    14.3715  14.3790  14.4302  14.4494  14.4652  14.5327  14.5902  14.6110
    14.6640  14.7789  14.8308  14.8616  14.9121  14.9460  15.0139  15.0515
    15.0774  15.1189  15.1456  15.1595  15.1606  15.2155  15.2644  15.3135
    15.3358  15.4049  15.4469  15.4638  15.5149  15.5303  15.5997  15.6236
    15.7070  15.7590  16.2227  16.5312  16.5628  17.5016  17.6675  17.8402
    18.0733

          k = 0.2500-0.2500 0.2500 (  6493 PWs)   bands (ev):

   -88.0643 -72.3473 -72.2515 -72.2454 -72.2444 -72.1914 -72.1872 -72.1866
   -72.1839 -72.1003 -72.0992 -72.0981 -71.9240 -71.9235 -71.9205 -48.2786
   -48.2783 -48.1675 -38.4543 -38.3764 -38.3740 -38.3418 -38.3287 -38.3273
   -38.3047 -38.3018 -38.2908 -38.2866 -38.2701 -38.2609 -38.2540 -38.2420
   -38.2371 -38.2210 -38.1894 -38.1776 -38.1713 -38.1554 -38.1535 -38.1342
   -38.1321 -38.1273 -38.1237 -38.0989 -38.0956 -38.0610 -38.0599 -38.0472
   -38.0377 -38.0355 -38.0344 -37.9714 -37.9435 -37.9427 -37.8696 -37.8568
   -37.8405 -37.8338 -37.8259 -37.8254   8.9674  10.8178  10.8656  11.1156
    11.5813  11.6058  11.7432  11.8879  11.9247  12.0351  12.1082  12.1188
    12.3768  12.3856  12.5368  12.5664  12.5764  12.7397  12.7479  12.8371
    12.8610  12.8988  12.9308  13.0232  13.0415  13.1071  13.1176  13.2990
    13.3237  13.3502  13.3723  13.4375  13.4660  13.5785  13.5922  13.7107
    13.7317  13.7393  13.7605  13.9092  13.9646  14.0189  14.1343  14.1728
    14.2154  14.2204  14.3780  14.4507  14.4685  14.5393  14.5680  14.6821
    14.7324  14.7433  14.8097  14.8841  14.9087  14.9433  14.9970  15.0019
    15.0476  15.0790  15.0989  15.1167  15.1397  15.1533  15.1913  15.2019
    15.3263  15.3434  15.3871  15.4805  15.5398  15.5682  15.6042  15.6889
    15.7435  15.8605  15.8643  16.5526  16.5536  16.6702  18.4701  18.5272
    18.7807

          k = 0.2500-0.2500-0.5000 (  6456 PWs)   bands (ev):

   -88.0642 -72.3472 -72.2499 -72.2470 -72.2444 -72.1918 -72.1868 -72.1861
   -72.1844 -72.1003 -72.0992 -72.0980 -71.9239 -71.9225 -71.9214 -48.2694
   -48.2688 -48.1598 -38.4515 -38.3704 -38.3659 -38.3428 -38.3256 -38.3247
   -38.3059 -38.2995 -38.2910 -38.2822 -38.2696 -38.2594 -38.2539 -38.2385
   -38.2350 -38.2218 -38.1783 -38.1731 -38.1677 -38.1620 -38.1500 -38.1402
   -38.1352 -38.1325 -38.1216 -38.1080 -38.0950 -38.0636 -38.0564 -38.0426
   -38.0364 -38.0326 -38.0214 -37.9640 -37.9483 -37.9427 -37.8599 -37.8528
   -37.8437 -37.8348 -37.8280 -37.8254   9.6694   9.9195  11.2405  11.3342
    11.3526  11.6232  12.1143  12.1471  12.1726  12.1932  12.2215  12.2303
    12.2733  12.3783  12.3933  12.5073  12.5760  12.7086  12.7463  12.8502
    12.9271  12.9701  13.0089  13.0260  13.0708  13.1196  13.1506  13.2118
    13.2518  13.3263  13.3797  13.4229  13.4364  13.4490  13.5023  13.5092
    13.5306  13.5424  13.5721  13.5802  13.7220  13.8033  13.8331  13.9671
    14.0505  14.2295  14.3432  14.4021  14.5534  14.5863  14.6476  14.6784
    14.7134  14.7602  14.7931  14.8096  14.8216  14.9510  14.9737  15.0335
    15.0503  15.0769  15.1205  15.1377  15.1623  15.1774  15.1966  15.2424
    15.2551  15.3468  15.3966  15.4585  15.4717  15.6181  15.7153  15.8170
    15.8619  15.8752  15.8890  16.0212  16.0325  17.6750  17.8893  19.1693
    19.2396

 ------ SPIN DOWN ----------


          k = 0.0000 0.0000 0.0000 (  6451 PWs)   bands (ev):

   -86.7276 -68.9407 -68.9200 -68.9200 -68.8800 -68.8662 -68.8569 -68.8569
   -68.8455 -68.8439 -68.8439 -68.8386 -68.8386 -68.8210 -68.7970 -46.9224
   -46.9224 -46.8482 -35.2049 -35.1922 -35.1922 -35.1607 -35.1423 -35.1423
   -35.0718 -35.0718 -35.0704 -35.0191 -35.0171 -35.0171 -35.0041 -35.0041
   -35.0003 -35.0003 -34.9985 -34.9884 -34.9709 -34.9709 -34.9619 -34.9602
   -34.9591 -34.9591 -34.9496 -34.9411 -34.9411 -34.9356 -34.9198 -34.9198
   -34.9055 -34.9055 -34.8854 -34.8436 -34.8182 -34.8182 -34.8099 -34.8099
   -34.7890 -34.7821 -34.7821 -34.7757   8.2119  12.1720  12.2358  12.2358
    12.3430  12.3430  12.5000  12.9081  12.9081  13.0046  13.0216  13.0216
    13.6154  13.7439  13.7439  14.3259  14.3259  14.4288  14.7130  14.7130
    14.7452  14.9107  14.9107  14.9841  15.2003  15.2003  15.3649  15.4516
    15.4516  15.6843  15.7285  15.9019  16.0483  16.0483  16.1803  16.1803
    16.3682  16.3682  16.4266  16.4734  16.4976  16.4976  16.5412  16.5412
    16.5575  16.7350  16.7350  16.8468  17.0102  17.0102  17.0931  17.2743
    17.2743  17.3346  17.3346  17.3977  17.5347  17.5347  17.6309  17.8991
    18.0010  18.0010  18.0556  18.1013  18.1013  18.2249  18.2249  18.3586
    18.3586  18.3947  18.4013  18.4058  18.4058  18.4362  18.5751  18.5751
    18.7766  18.7766  18.8241  18.8241  18.8836  18.8836  18.9190  18.9690
    19.0563

          k = 0.0000 0.0000 0.2500 (  6495 PWs)   bands (ev):

   -86.7277 -68.9378 -68.9224 -68.9200 -68.8797 -68.8702 -68.8574 -68.8566
   -68.8479 -68.8448 -68.8442 -68.8387 -68.8307 -68.8194 -68.7996 -46.9352
   -46.9310 -46.8586 -35.1974 -35.1859 -35.1841 -35.1510 -35.1401 -35.1393
   -35.0850 -35.0824 -35.0733 -35.0664 -35.0609 -35.0485 -35.0374 -35.0200
   -35.0151 -35.0043 -34.9825 -34.9771 -34.9761 -34.9664 -34.9582 -34.9531
   -34.9362 -34.9311 -34.9269 -34.9241 -34.9169 -34.9104 -34.9072 -34.9019
   -34.8990 -34.8885 -34.8819 -34.8512 -34.8329 -34.8286 -34.8215 -34.8194
   -34.8100 -34.8021 -34.7995 -34.7933   8.5152  10.7920  12.3944  12.4012
    12.5003  12.5564  12.9203  12.9501  12.9925  12.9927  13.2034  13.3216
    13.6955  13.8703  13.8755  14.2466  14.3370  14.3843  14.5361  14.7967
    14.8010  14.8614  14.9268  15.0195  15.0612  15.0809  15.3663  15.3675
    15.4433  15.4881  15.6341  15.8068  15.8865  15.9092  15.9908  16.0659
    16.0801  16.1218  16.1768  16.2303  16.2677  16.3237  16.3472  16.5025
    16.5075  16.6533  16.7782  16.8254  16.8777  16.9087  17.0795  17.1777
    17.2250  17.2913  17.3851  17.6547  17.7127  17.7365  17.8062  17.8757
    17.9291  17.9739  18.0539  18.0806  18.1493  18.1689  18.2765  18.3249
    18.3520  18.3764  18.4036  18.4910  18.5152  18.6246  18.6488  18.6968
    18.7064  18.7304  18.8362  18.8420  18.8618  18.9102  18.9486  18.9581
    18.9829

          k = 0.0000 0.0000-0.5000 (  6480 PWs)   bands (ev):

   -86.7277 -68.9328 -68.9269 -68.9200 -68.8791 -68.8742 -68.8576 -68.8564
   -68.8486 -68.8449 -68.8445 -68.8388 -68.8270 -68.8149 -68.8039 -46.9352
   -46.9266 -46.8557 -35.1503 -35.1490 -35.1469 -35.1416 -35.1413 -35.1270
   -35.1246 -35.1158 -35.1138 -35.0985 -35.0800 -35.0705 -35.0598 -35.0249
   -35.0172 -35.0066 -34.9905 -34.9889 -34.9820 -34.9685 -34.9619 -34.9487
   -34.9304 -34.9124 -34.9044 -34.9005 -34.8948 -34.8930 -34.8885 -34.8793
   -34.8747 -34.8729 -34.8595 -34.8489 -34.8448 -34.8370 -34.8283 -34.8251
   -34.8231 -34.8203 -34.8194 -34.8100   9.2722   9.5804  12.6094  12.6732
    12.6893  12.7509  12.8746  12.8835  12.9295  13.1519  13.5306  13.6240
    13.7534  13.9612  14.0046  14.0504  14.1072  14.3119  14.4562  14.5663
    14.8445  14.8553  14.9487  15.0729  15.1884  15.2838  15.3827  15.3958
    15.4347  15.4420  15.4530  15.5371  15.5513  15.5599  15.6267  15.8067
    15.8351  15.8707  15.9420  15.9844  16.0664  16.1528  16.1980  16.3127
    16.3384  16.5851  16.7389  17.0043  17.0799  17.2579  17.3437  17.3567
    17.4438  17.4721  17.5259  17.6316  17.6860  17.7764  17.7773  17.8235
    17.8980  17.9231  18.0698  18.2223  18.2434  18.3181  18.3319  18.3377
    18.3618  18.3824  18.4259  18.4375  18.4775  18.5043  18.5361  18.5937
    18.6079  18.7142  18.7852  18.8249  18.8277  18.9498  19.0093  19.0485
    19.0569

          k = 0.0000 0.2500 0.2500 (  6500 PWs)   bands (ev):

   -86.7277 -68.9349 -68.9236 -68.9210 -68.8800 -68.8694 -68.8631 -68.8561
   -68.8485 -68.8472 -68.8434 -68.8345 -68.8256 -68.8205 -68.8017 -46.9359
   -46.9302 -46.8622 -35.1896 -35.1707 -35.1607 -35.1389 -35.1309 -35.1287
   -35.1209 -35.1045 -35.0966 -35.0873 -35.0604 -35.0513 -35.0378 -35.0141
   -35.0045 -35.0037 -34.9976 -34.9799 -34.9776 -34.9709 -34.9698 -34.9588
   -34.9447 -34.9442 -34.9312 -34.9262 -34.9083 -34.9009 -34.8921 -34.8858
   -34.8816 -34.8651 -34.8600 -34.8557 -34.8402 -34.8313 -34.8296 -34.8244
   -34.8198 -34.8108 -34.7958 -34.7925   8.8179  10.9645  11.0976  12.4171
    12.6395  12.6641  13.0569  13.1712  13.2150  13.2503  13.4087  13.5164
    13.8081  13.9149  14.0500  14.2026  14.3267  14.3805  14.5468  14.7037
    14.7965  14.8140  14.8763  14.9462  15.0535  15.0575  15.1496  15.2692
    15.3682  15.4674  15.5236  15.6534  15.6948  15.7571  15.7767  15.8451
    15.9161  15.9434  16.0171  16.1160  16.1452  16.1976  16.2502  16.4040
    16.4893  16.6141  16.6889  16.8479  16.9640  17.0976  17.1314  17.1607
    17.2942  17.3162  17.4073  17.5277  17.5874  17.7391  17.8316  17.9404
    17.9994  18.0436  18.0517  18.1141  18.1329  18.1966  18.2289  18.2674
    18.2786  18.3564  18.3819  18.3886  18.4431  18.4477  18.4699  18.5455
    18.5571  18.6911  18.8438  18.9920  19.0396  19.5106  19.6322  19.7082
    19.7167

          k = 0.0000 0.2500-0.5000 (  6452 PWs)   bands (ev):

   -86.7277 -68.9308 -68.9263 -68.9214 -68.8794 -68.8728 -68.8626 -68.8577
   -68.8493 -68.8472 -68.8428 -68.8330 -68.8247 -68.8160 -68.8053 -46.9262
   -46.9202 -46.8485 -35.1596 -35.1527 -35.1457 -35.1395 -35.1379 -35.1339
   -35.1211 -35.1077 -35.1015 -35.0752 -35.0682 -35.0598 -35.0444 -35.0345
   -35.0172 -34.9967 -34.9950 -34.9829 -34.9789 -34.9743 -34.9709 -34.9550
   -34.9363 -34.9343 -34.9280 -34.9161 -34.9121 -34.8996 -34.8915 -34.8760
   -34.8704 -34.8648 -34.8519 -34.8454 -34.8341 -34.8316 -34.8264 -34.8217
   -34.8151 -34.8090 -34.8069 -34.7970   9.5567   9.8485  11.5352  11.8346
    12.8729  12.9379  13.1012  13.2047  13.5032  13.5699  13.6462  13.6815
    13.8400  13.9545  14.0382  14.0912  14.1848  14.3848  14.4606  14.6289
    14.7381  14.8313  14.9068  15.0061  15.0432  15.0808  15.1792  15.2304
    15.2650  15.3370  15.3948  15.4819  15.5006  15.5881  15.6248  15.6695
    15.7009  15.7646  15.8270  15.9141  15.9975  16.0529  16.1363  16.4087
    16.4599  16.5177  16.8494  16.9259  17.0171  17.1361  17.2338  17.3602
    17.4115  17.4423  17.5106  17.5369  17.5651  17.6098  17.7069  17.8216
    17.8901  17.9621  18.0141  18.0728  18.1291  18.2249  18.2544  18.2683
    18.3206  18.3409  18.3772  18.3935  18.4086  18.4294  18.4612  18.5362
    18.6386  18.7277  18.8538  19.2618  19.3180  19.3419  19.4006  20.1942
    20.4108

          k = 0.0000-0.5000-0.5000 (  6496 PWs)   bands (ev):

   -86.7277 -68.9272 -68.9264 -68.9240 -68.8798 -68.8700 -68.8668 -68.8614
   -68.8491 -68.8476 -68.8413 -68.8301 -68.8209 -68.8179 -68.8071 -46.9375
   -46.9295 -46.8587 -35.1634 -35.1491 -35.1475 -35.1466 -35.1434 -35.1368
   -35.1207 -35.1094 -35.0953 -35.0626 -35.0543 -35.0469 -35.0168 -35.0144
   -35.0098 -35.0021 -34.9986 -34.9922 -34.9918 -34.9874 -34.9802 -34.9705
   -34.9626 -34.9596 -34.9466 -34.9428 -34.9276 -34.9058 -34.8848 -34.8742
   -34.8699 -34.8697 -34.8533 -34.8437 -34.8347 -34.8288 -34.8258 -34.8220
   -34.8108 -34.8000 -34.7989 -34.7901  10.2825  10.4261  10.4306  10.9667
    13.2950  13.3118  13.3205  13.4796  13.5338  13.6268  13.6384  13.7627
    13.9740  13.9768  14.0379  14.0807  14.3981  14.4043  14.5074  14.5162
    14.6922  14.7073  14.7365  14.7765  14.8616  14.9867  15.0433  15.0606
    15.2490  15.2753  15.3489  15.3617  15.4014  15.4470  15.5043  15.5543
    15.6439  15.6742  15.7427  15.9173  15.9984  16.0758  16.1635  16.4244
    16.4518  16.6065  16.6265  16.8872  16.9209  16.9790  17.1487  17.2457
    17.2717  17.3936  17.5125  17.6129  17.6419  17.7175  17.7177  17.7869
    17.8258  17.8798  17.9418  17.9551  18.0533  18.1079  18.1300  18.2179
    18.2367  18.2814  18.2881  18.3069  18.3424  18.4103  18.4412  18.5831
    18.7346  18.8040  18.9898  19.8125  19.8825  20.0369  20.0948  20.1537
    20.2593

          k = 0.2500 0.2500 0.2500 (  6493 PWs)   bands (ev):

   -86.7277 -68.9320 -68.9233 -68.9233 -68.8806 -68.8659 -68.8640 -68.8640
   -68.8467 -68.8467 -68.8455 -68.8255 -68.8255 -68.8235 -68.8031 -46.9329
   -46.9329 -46.8581 -35.1786 -35.1432 -35.1432 -35.1302 -35.1302 -35.1280
   -35.1233 -35.1233 -35.1194 -35.0616 -35.0616 -35.0490 -35.0490 -35.0382
   -35.0278 -35.0124 -34.9939 -34.9939 -34.9754 -34.9749 -34.9749 -34.9396
   -34.9396 -34.9282 -34.9207 -34.9207 -34.9118 -34.9118 -34.9092 -34.8975
   -34.8776 -34.8534 -34.8534 -34.8526 -34.8332 -34.8258 -34.8258 -34.8225
   -34.8225 -34.8064 -34.8064 -34.7962   9.1136  11.2136  11.2136  11.4009
    12.6199  12.6199  12.7903  13.4215  13.4215  13.5678  13.6813  13.6813
    14.0444  14.0648  14.0648  14.1015  14.4032  14.4062  14.4062  14.7565
    14.7691  14.7691  14.8521  14.8521  15.0653  15.0667  15.0667  15.0739
    15.4100  15.4100  15.4269  15.4638  15.4638  15.6741  15.6741  15.6758
    15.7052  15.7506  15.7506  15.9817  15.9817  16.1346  16.1346  16.2795
    16.4852  16.6313  16.6313  17.0304  17.1586  17.1586  17.2343  17.2343
    17.2865  17.3554  17.5326  17.5354  17.5354  17.7794  17.8061  17.8061
    17.9293  18.0333  18.0333  18.1218  18.1958  18.1958  18.2532  18.2532
    18.3098  18.3098  18.3357  18.3881  18.3881  18.4918  18.4918  18.5581
    18.5663  18.5663  18.6531  18.9853  18.9853  19.0098  20.2418  20.2418
    20.3843

          k = 0.2500 0.2500-0.5000 (  6456 PWs)   bands (ev):

   -86.7277 -68.9290 -68.9254 -68.9230 -68.8804 -68.8713 -68.8648 -68.8609
   -68.8482 -68.8462 -68.8442 -68.8277 -68.8254 -68.8170 -68.8059 -46.9275
   -46.9219 -46.8484 -35.1554 -35.1507 -35.1496 -35.1326 -35.1279 -35.1232
   -35.1075 -35.1058 -35.0915 -35.0811 -35.0668 -35.0524 -35.0467 -35.0324
   -35.0242 -35.0179 -35.0098 -35.0003 -34.9862 -34.9815 -34.9813 -34.9443
   -34.9434 -34.9378 -34.9258 -34.9109 -34.9011 -34.8971 -34.8906 -34.8788
   -34.8761 -34.8597 -34.8551 -34.8503 -34.8328 -34.8268 -34.8246 -34.8213
   -34.8112 -34.8107 -34.8055 -34.7999   9.8407  10.1167  11.7858  11.7877
    11.9518  12.2193  13.1879  13.5287  13.6285  13.7074  13.7793  13.8137
    13.9556  14.0659  14.1741  14.2461  14.3109  14.4018  14.5751  14.6250
    14.6548  14.8658  14.8939  14.9170  14.9703  15.0015  15.0929  15.1270
    15.1753  15.2095  15.3421  15.3992  15.4135  15.4842  15.5377  15.5651
    15.5869  15.6849  15.7592  15.7955  15.8572  15.8907  15.9537  16.2495
    16.4162  16.5279  16.7488  16.8408  17.0289  17.1316  17.3205  17.3760
    17.4304  17.5383  17.5860  17.6050  17.7190  17.7227  17.8411  17.8759
    17.9797  18.0014  18.1008  18.1520  18.1723  18.2022  18.2260  18.2635
    18.2755  18.3256  18.3267  18.3481  18.3780  18.4447  18.4728  18.4974
    18.5400  18.5754  18.6219  18.6233  18.7011  19.8172  20.0018  20.7713
    20.8247

          k = 0.2500-0.5000-0.5000 (  6472 PWs)   bands (ev):

   -86.7277 -68.9265 -68.9261 -68.9234 -68.8809 -68.8708 -68.8693 -68.8596
   -68.8494 -68.8456 -68.8426 -68.8304 -68.8195 -68.8182 -68.8072 -46.9280
   -46.9273 -46.8533 -35.1477 -35.1375 -35.1349 -35.1290 -35.1253 -35.1230
   -35.1077 -35.0995 -35.0903 -35.0675 -35.0498 -35.0480 -35.0469 -35.0434
   -35.0390 -35.0339 -35.0302 -35.0236 -35.0064 -34.9909 -34.9862 -34.9416
   -34.9356 -34.9329 -34.9148 -34.9094 -34.9055 -34.8957 -34.8839 -34.8820
   -34.8700 -34.8628 -34.8532 -34.8490 -34.8338 -34.8318 -34.8274 -34.8239
   -34.8167 -34.8115 -34.8093 -34.8020  10.5525  10.6986  10.7087  11.1852
    12.3682  12.5241  12.5374  13.1170  13.8095  13.9377  14.0339  14.0871
    14.0960  14.2004  14.2665  14.3715  14.4823  14.4915  14.5527  14.5816
    14.6965  14.7165  14.7982  14.8538  14.8549  14.9879  14.9940  15.0870
    15.1523  15.2141  15.2419  15.2911  15.3183  15.3907  15.4312  15.4717
    15.4959  15.6022  15.6219  15.7094  15.7246  15.7932  15.8679  15.9184
    16.0585  16.6120  16.6290  16.7347  17.1303  17.1796  17.4199  17.4457
    17.6030  17.6875  17.7228  17.7258  17.8030  17.8771  17.8881  17.9051
    17.9130  17.9772  18.0266  18.0478  18.0852  18.1454  18.1798  18.1920
    18.2089  18.2497  18.2850  18.2893  18.3066  18.3583  18.3621  18.4462
    18.5166  18.5650  18.6571  19.0948  19.1448  19.1554  19.2352  21.6731
    21.8359

          k =-0.5000-0.5000-0.5000 (  6488 PWs)   bands (ev):

   -86.7277 -68.9259 -68.9259 -68.9229 -68.8821 -68.8714 -68.8714 -68.8578
   -68.8501 -68.8438 -68.8438 -68.8304 -68.8183 -68.8183 -68.8073 -46.9296
   -46.9296 -46.8553 -35.1128 -35.1128 -35.1065 -35.1004 -35.0993 -35.0993
   -35.0978 -35.0978 -35.0824 -35.0808 -35.0808 -35.0807 -35.0750 -35.0750
   -35.0661 -35.0545 -35.0427 -35.0427 -35.0173 -34.9887 -34.9887 -34.9336
   -34.9336 -34.9237 -34.8842 -34.8842 -34.8819 -34.8799 -34.8799 -34.8759
   -34.8705 -34.8611 -34.8611 -34.8498 -34.8423 -34.8362 -34.8362 -34.8300
   -34.8300 -34.8250 -34.8250 -34.8154  11.1794  11.4087  11.4087  11.4280
    11.5164  11.5630  11.5630  12.5829  13.9983  13.9983  14.1810  14.1810
    14.2653  14.5784  14.5784  14.5990  14.6185  14.6906  14.6906  14.7046
    14.7046  14.8457  14.8457  14.8487  14.8711  15.0649  15.0736  15.0736
    15.1068  15.1068  15.2607  15.2675  15.2675  15.2959  15.3023  15.3023
    15.3096  15.3290  15.3998  15.3998  15.4701  15.5301  15.5301  15.6436
    15.6436  16.6163  16.6447  16.6447  17.2768  17.2768  17.5180  17.5180
    17.7524  17.9600  17.9600  17.9888  18.0136  18.0136  18.0313  18.0313
    18.0613  18.1242  18.1242  18.1372  18.1372  18.1781  18.1901  18.2012
    18.2361  18.2361  18.2444  18.2800  18.2800  18.3350  18.3350  18.3652
    18.3652  18.3833  18.4357  18.5400  18.5400  18.5450  18.7931  23.4946
    23.4946

          k =-0.2500 0.0000 0.2500 (  6500 PWs)   bands (ev):

   -86.7277 -68.9355 -68.9223 -68.9215 -68.8793 -68.8725 -68.8602 -68.8558
   -68.8496 -68.8465 -68.8436 -68.8330 -68.8303 -68.8175 -68.8020 -46.9370
   -46.9337 -46.8575 -35.1841 -35.1791 -35.1753 -35.1477 -35.1281 -35.1268
   -35.1091 -35.1067 -35.0823 -35.0658 -35.0585 -35.0547 -35.0370 -35.0164
   -35.0077 -35.0045 -34.9892 -34.9852 -34.9768 -34.9755 -34.9704 -34.9678
   -34.9599 -34.9377 -34.9249 -34.9208 -34.9171 -34.9077 -34.8951 -34.8904
   -34.8832 -34.8658 -34.8604 -34.8514 -34.8442 -34.8317 -34.8275 -34.8209
   -34.8088 -34.8052 -34.8036 -34.7906   8.8196  10.8877  11.1805  12.4093
    12.6365  12.6542  13.0842  13.1866  13.2063  13.3239  13.3699  13.4722
    13.7959  13.9293  13.9866  14.1793  14.3141  14.4531  14.5141  14.7433
    14.7762  14.8226  14.8821  14.9053  15.0235  15.1402  15.1671  15.3450
    15.4001  15.4601  15.5291  15.6137  15.6569  15.7600  15.7793  15.8224
    15.9170  15.9654  16.0187  16.0510  16.1124  16.2052  16.3369  16.4411
    16.4999  16.5553  16.7027  16.8411  16.9027  16.9794  17.1403  17.2144
    17.2559  17.2995  17.3956  17.6212  17.6977  17.7460  17.8687  17.9002
    17.9550  17.9942  18.0633  18.1055  18.1437  18.2291  18.2393  18.2670
    18.2788  18.3016  18.3553  18.3823  18.4494  18.4731  18.5060  18.5144
    18.5459  18.5870  18.9910  19.0099  19.0529  19.4140  19.5189  19.7112
    19.8488

          k = 0.2500-0.2500 0.2500 (  6493 PWs)   bands (ev):

   -86.7277 -68.9333 -68.9233 -68.9216 -68.8796 -68.8727 -68.8640 -68.8554
   -68.8504 -68.8466 -68.8422 -68.8339 -68.8256 -68.8172 -68.8038 -46.9329
   -46.9324 -46.8586 -35.1701 -35.1645 -35.1617 -35.1359 -35.1292 -35.1261
   -35.1196 -35.1059 -35.0779 -35.0631 -35.0619 -35.0524 -35.0451 -35.0384
   -35.0250 -35.0226 -35.0111 -34.9964 -34.9914 -34.9776 -34.9766 -34.9370
   -34.9357 -34.9241 -34.9227 -34.9214 -34.9097 -34.9065 -34.8999 -34.8911
   -34.8785 -34.8653 -34.8552 -34.8541 -34.8395 -34.8241 -34.8235 -34.8208
   -34.8154 -34.8058 -34.8045 -34.7999   9.1170  11.1118  11.2145  11.5132
    12.5688  12.6050  12.8472  13.4763  13.5350  13.5748  13.6306  13.6469
    13.9195  13.9752  14.0829  14.1735  14.2802  14.3678  14.5007  14.6502
    14.7883  14.8248  14.8877  14.9170  14.9829  15.0577  15.1642  15.2879
    15.3133  15.3809  15.3941  15.4863  15.5423  15.6228  15.6443  15.6874
    15.7513  15.7773  15.8330  15.8568  15.9873  16.0449  16.1421  16.2876
    16.5264  16.5604  16.6947  16.8604  16.9052  17.1007  17.1473  17.3838
    17.4016  17.4399  17.4778  17.6126  17.6866  17.7621  17.8515  17.9344
    17.9469  17.9798  18.0393  18.1053  18.1070  18.2254  18.2590  18.2667
    18.2821  18.3237  18.3293  18.3702  18.4371  18.4787  18.4855  18.5287
    18.5405  18.5872  18.6259  18.9631  18.9651  19.0267  20.2020  20.2550
    20.4248

          k = 0.2500-0.2500-0.5000 (  6456 PWs)   bands (ev):

   -86.7277 -68.9295 -68.9262 -68.9215 -68.8799 -68.8731 -68.8666 -68.8556
   -68.8511 -68.8461 -68.8415 -68.8341 -68.8213 -68.8164 -68.8064 -46.9238
   -46.9233 -46.8510 -35.1525 -35.1462 -35.1449 -35.1410 -35.1302 -35.1218
   -35.1079 -35.0953 -35.0862 -35.0793 -35.0717 -35.0588 -35.0562 -35.0433
   -35.0268 -35.0150 -35.0107 -34.9976 -34.9929 -34.9878 -34.9816 -34.9465
   -34.9378 -34.9273 -34.9179 -34.9018 -34.9008 -34.8913 -34.8893 -34.8796
   -34.8745 -34.8614 -34.8546 -34.8512 -34.8400 -34.8291 -34.8236 -34.8213
   -34.8164 -34.8115 -34.8043 -34.8005   9.8413  10.1197  11.7042  11.8577
    11.9103  12.2767  13.1796  13.5165  13.6615  13.7815  13.8363  13.8713
    13.9149  13.9623  14.1478  14.1771  14.2910  14.3908  14.5074  14.5919
    14.7496  14.8475  14.9073  14.9441  14.9735  15.0209  15.0996  15.1466
    15.1914  15.2431  15.3599  15.4072  15.4610  15.4740  15.5270  15.5692
    15.5933  15.6792  15.7155  15.7453  15.8000  15.8713  15.9452  16.3279
    16.4206  16.5957  16.6929  16.8244  16.9784  17.0203  17.3451  17.3596
    17.4328  17.5315  17.5897  17.6817  17.7403  17.8001  17.8246  17.9017
    17.9737  18.0055  18.0645  18.1046  18.1809  18.1966  18.2307  18.2825
    18.3214  18.3415  18.3468  18.3773  18.3995  18.4381  18.4661  18.5247
    18.5406  18.5703  18.5999  18.6134  18.6517  19.7953  19.9775  20.7413
    20.8394

     the Fermi energy is    16.2355 ev

!    total energy              =   -3807.99276552 Ry
     estimated scf accuracy    <       0.00000005 Ry
     smearing contrib. (-TS)   =       0.01607537 Ry
     internal energy E=F+TS    =   -3808.00884089 Ry

     The total energy is F=E-TS. E is the sum of the following terms:
     one-electron contribution =   -1959.18168767 Ry
     hartree contribution      =    1105.74566018 Ry
     xc contribution           =    -422.85015939 Ry
     ewald contribution        =   -2531.72265401 Ry

     total magnetization       =    36.59 Bohr mag/cell
     absolute magnetization    =    39.06 Bohr mag/cell

     convergence has been achieved in  25 iterations

     negative rho (up, down):  0.000E+00 1.858E-03

     Forces acting on atoms (cartesian axes, Ry/au):

     atom    1 type  2   force =    -0.00005335   -0.00005335   -0.00005335
     atom    2 type  1   force =    -0.00249695    0.00343897    0.00343897
     atom    3 type  1   force =     0.00343897   -0.00249695    0.00343897
     atom    4 type  1   force =    -0.00070539   -0.00070539    0.00188679
     atom    5 type  1   force =     0.00343897    0.00343897   -0.00249695
     atom    6 type  1   force =    -0.00070539    0.00188679   -0.00070539
     atom    7 type  1   force =     0.00188679   -0.00070539   -0.00070539
     atom    8 type  1   force =    -0.00303426   -0.00303426   -0.00303426
     atom    9 type  1   force =     0.00078610   -0.00079531   -0.00079531
     atom   10 type  1   force =    -0.00079531    0.00078610   -0.00079531
     atom   11 type  1   force =    -0.00076174   -0.00076174    0.00075114
     atom   12 type  1   force =    -0.00079531   -0.00079531    0.00078610
     atom   13 type  1   force =    -0.00076174    0.00075114   -0.00076174
     atom   14 type  1   force =     0.00075114   -0.00076174   -0.00076174
     atom   15 type  1   force =    -0.00019253   -0.00019253   -0.00019253

     Total force =     0.011912     Total SCF correction =     0.000993
     Energy error            =      2.7E-03 Ry
     Gradient error          =      3.4E-03 Ry/Bohr

     number of scf cycles    =   5
     number of bfgs steps    =   4

     energy             old  =   -3807.9900763838 Ry
     energy             new  =   -3807.9927655201 Ry

     CASE: energy            _new < energy            _old

     new trust radius        =       0.0418984127 bohr
     new conv_thr            =       0.0000000344 Ry


ATOMIC_POSITIONS (crystal)
Ni               0.0041002248        0.0041002248        0.0041002248
Fe               0.4906606818        0.0081254931        0.0081254931
Fe               0.0081254931        0.4906606818        0.0081254931
Fe               0.4943393099        0.4943393099        0.0084055767
Fe               0.0081254931        0.0081254931        0.4906606818
Fe               0.4943393099        0.0084055767        0.4943393099
Fe               0.0084055767        0.4943393099        0.4943393099
Fe               0.4887982120        0.4887982120        0.4887982120
Fe               0.7545391433        0.2484790342        0.2484790342
Fe               0.2484790342        0.7545391433        0.2484790342
Fe               0.7482435014        0.7482435014        0.2514600174
Fe               0.2484790342        0.2484790342        0.7545391433
Fe               0.7482435014        0.2514600174        0.7482435014
Fe               0.2514600174        0.7482435014        0.7482435014
Fe               0.7536614668        0.7536614668        0.7536614668



     Writing config-only to output data dir ./outdir/fe15_ni1_end.save/ :
     XML data file
     NEW-OLD atomic charge density approx. for the potential

     Check: negative core charge=   -0.000004

     negative rho (up, down):  0.000E+00 2.006E-03
     Generating pointlists ...

     total cpu time spent up to now is     3071.0 secs

     per-process dynamical memory:   178.6 Mb

     Self-consistent Calculation

     iteration #  1     ecut=    45.00 Ry     beta= 0.10
     Davidson diagonalization with overlap
     ethr =  1.00E-06,  avg # of iterations =  8.4

     negative rho (up, down):  0.000E+00 2.004E-03

     total cpu time spent up to now is     3132.9 secs

     total energy              =   -3807.99376456 Ry
     estimated scf accuracy    <       0.01761771 Ry

     total magnetization       =    36.66 Bohr mag/cell
     absolute magnetization    =    39.14 Bohr mag/cell

     iteration #  2     ecut=    45.00 Ry     beta= 0.10
     Davidson diagonalization with overlap
     ethr =  7.28E-06,  avg # of iterations =  2.0

     negative rho (up, down):  0.000E+00 2.010E-03

     total cpu time spent up to now is     3155.1 secs

     total energy              =   -3807.99069426 Ry
     estimated scf accuracy    <       0.14474113 Ry

     total magnetization       =    36.65 Bohr mag/cell
     absolute magnetization    =    39.32 Bohr mag/cell

     iteration #  3     ecut=    45.00 Ry     beta= 0.10
     Davidson diagonalization with overlap
     ethr =  7.28E-06,  avg # of iterations =  2.0

     negative rho (up, down):  0.000E+00 1.990E-03

     total cpu time spent up to now is     3177.5 secs

     total energy              =   -3807.99177446 Ry
     estimated scf accuracy    <       0.01051775 Ry

     total magnetization       =    36.65 Bohr mag/cell
     absolute magnetization    =    39.13 Bohr mag/cell

     iteration #  4     ecut=    45.00 Ry     beta= 0.10
     Davidson diagonalization with overlap
     ethr =  4.35E-06,  avg # of iterations =  1.5

     negative rho (up, down):  0.000E+00 1.948E-03

     total cpu time spent up to now is     3197.6 secs

     total energy              =   -3807.99211526 Ry
     estimated scf accuracy    <       0.00220651 Ry

     total magnetization       =    36.63 Bohr mag/cell
     absolute magnetization    =    39.11 Bohr mag/cell

     iteration #  5     ecut=    45.00 Ry     beta= 0.10
     Davidson diagonalization with overlap
     ethr =  9.12E-07,  avg # of iterations =  1.1

     negative rho (up, down):  0.000E+00 1.835E-03

     total cpu time spent up to now is     3216.7 secs

     total energy              =   -3807.99221267 Ry
     estimated scf accuracy    <       0.00071327 Ry

     total magnetization       =    36.61 Bohr mag/cell
     absolute magnetization    =    39.09 Bohr mag/cell

     iteration #  6     ecut=    45.00 Ry     beta= 0.10
     Davidson diagonalization with overlap
     ethr =  2.95E-07,  avg # of iterations =  2.2

     negative rho (up, down):  0.000E+00 1.819E-03

     total cpu time spent up to now is     3240.3 secs

     total energy              =   -3807.99248830 Ry
     estimated scf accuracy    <       0.00026068 Ry

     total magnetization       =    36.62 Bohr mag/cell
     absolute magnetization    =    39.10 Bohr mag/cell

     iteration #  7     ecut=    45.00 Ry     beta= 0.10
     Davidson diagonalization with overlap
     ethr =  1.08E-07,  avg # of iterations =  2.2

     negative rho (up, down):  0.000E+00 1.830E-03

     total cpu time spent up to now is     3261.6 secs

     total energy              =   -3807.99263862 Ry
     estimated scf accuracy    <       0.00001353 Ry

     total magnetization       =    36.62 Bohr mag/cell
     absolute magnetization    =    39.10 Bohr mag/cell

     iteration #  8     ecut=    45.00 Ry     beta= 0.10
     Davidson diagonalization with overlap
     ethr =  5.59E-09,  avg # of iterations =  4.7

     negative rho (up, down):  0.000E+00 1.839E-03

     total cpu time spent up to now is     3288.8 secs

     total energy              =   -3807.99276659 Ry
     estimated scf accuracy    <       0.00001567 Ry

     total magnetization       =    36.62 Bohr mag/cell
     absolute magnetization    =    39.10 Bohr mag/cell

     iteration #  9     ecut=    45.00 Ry     beta= 0.10
     Davidson diagonalization with overlap
     ethr =  5.59E-09,  avg # of iterations =  1.8

     negative rho (up, down):  0.000E+00 1.847E-03

     total cpu time spent up to now is     3310.6 secs

     total energy              =   -3807.99285548 Ry
     estimated scf accuracy    <       0.00001587 Ry

     total magnetization       =    36.62 Bohr mag/cell
     absolute magnetization    =    39.10 Bohr mag/cell

     iteration # 10     ecut=    45.00 Ry     beta= 0.10
     Davidson diagonalization with overlap
     ethr =  5.59E-09,  avg # of iterations =  2.0

     negative rho (up, down):  0.000E+00 1.856E-03

     total cpu time spent up to now is     3333.3 secs

     total energy              =   -3807.99290580 Ry
     estimated scf accuracy    <       0.00005219 Ry

     total magnetization       =    36.62 Bohr mag/cell
     absolute magnetization    =    39.10 Bohr mag/cell

     iteration # 11     ecut=    45.00 Ry     beta= 0.10
     Davidson diagonalization with overlap
     ethr =  5.59E-09,  avg # of iterations =  2.1

     negative rho (up, down):  0.000E+00 1.857E-03

     total cpu time spent up to now is     3356.2 secs

     total energy              =   -3807.99297751 Ry
     estimated scf accuracy    <       0.00002333 Ry

     total magnetization       =    36.62 Bohr mag/cell
     absolute magnetization    =    39.10 Bohr mag/cell

     iteration # 12     ecut=    45.00 Ry     beta= 0.10
     Davidson diagonalization with overlap
     ethr =  5.59E-09,  avg # of iterations =  1.0

     negative rho (up, down):  0.000E+00 1.857E-03

     total cpu time spent up to now is     3375.1 secs

     total energy              =   -3807.99303287 Ry
     estimated scf accuracy    <       0.00002209 Ry

     total magnetization       =    36.62 Bohr mag/cell
     absolute magnetization    =    39.10 Bohr mag/cell

     iteration # 13     ecut=    45.00 Ry     beta= 0.10
     Davidson diagonalization with overlap
     ethr =  5.59E-09,  avg # of iterations =  2.0

     negative rho (up, down):  0.000E+00 1.861E-03

     total cpu time spent up to now is     3397.2 secs

     total energy              =   -3807.99306776 Ry
     estimated scf accuracy    <       0.00000658 Ry

     total magnetization       =    36.62 Bohr mag/cell
     absolute magnetization    =    39.10 Bohr mag/cell

     iteration # 14     ecut=    45.00 Ry     beta= 0.10
     Davidson diagonalization with overlap
     ethr =  2.72E-09,  avg # of iterations =  2.0

     negative rho (up, down):  0.000E+00 1.868E-03

     total cpu time spent up to now is     3419.2 secs

     total energy              =   -3807.99308575 Ry
     estimated scf accuracy    <       0.00003830 Ry

     total magnetization       =    36.62 Bohr mag/cell
     absolute magnetization    =    39.10 Bohr mag/cell

     iteration # 15     ecut=    45.00 Ry     beta= 0.10
     Davidson diagonalization with overlap
     ethr =  2.72E-09,  avg # of iterations =  2.1

     negative rho (up, down):  0.000E+00 1.876E-03

     total cpu time spent up to now is     3442.3 secs

     total energy              =   -3807.99311374 Ry
     estimated scf accuracy    <       0.00000393 Ry

     total magnetization       =    36.62 Bohr mag/cell
     absolute magnetization    =    39.10 Bohr mag/cell

     iteration # 16     ecut=    45.00 Ry     beta= 0.10
     Davidson diagonalization with overlap
     ethr =  1.62E-09,  avg # of iterations =  2.1

     negative rho (up, down):  0.000E+00 1.879E-03

     total cpu time spent up to now is     3465.7 secs

     total energy              =   -3807.99314058 Ry
     estimated scf accuracy    <       0.00002643 Ry

     total magnetization       =    36.62 Bohr mag/cell
     absolute magnetization    =    39.10 Bohr mag/cell

     iteration # 17     ecut=    45.00 Ry     beta= 0.10
     Davidson diagonalization with overlap
     ethr =  1.62E-09,  avg # of iterations =  2.0

     negative rho (up, down):  0.000E+00 1.882E-03

     total cpu time spent up to now is     3487.6 secs

     total energy              =   -3807.99315919 Ry
     estimated scf accuracy    <       0.00001193 Ry

     total magnetization       =    36.62 Bohr mag/cell
     absolute magnetization    =    39.10 Bohr mag/cell

     iteration # 18     ecut=    45.00 Ry     beta= 0.10
     Davidson diagonalization with overlap
     ethr =  1.62E-09,  avg # of iterations =  1.7

     negative rho (up, down):  0.000E+00 1.885E-03

     total cpu time spent up to now is     3509.4 secs

     total energy              =   -3807.99317405 Ry
     estimated scf accuracy    <       0.00001073 Ry

     total magnetization       =    36.62 Bohr mag/cell
     absolute magnetization    =    39.10 Bohr mag/cell

     iteration # 19     ecut=    45.00 Ry     beta= 0.10
     Davidson diagonalization with overlap
     ethr =  1.62E-09,  avg # of iterations =  1.5

     negative rho (up, down):  0.000E+00 1.892E-03

     total cpu time spent up to now is     3530.2 secs

     total energy              =   -3807.99318399 Ry
     estimated scf accuracy    <       0.00000384 Ry

     total magnetization       =    36.62 Bohr mag/cell
     absolute magnetization    =    39.10 Bohr mag/cell

     iteration # 20     ecut=    45.00 Ry     beta= 0.10
     Davidson diagonalization with overlap
     ethr =  1.59E-09,  avg # of iterations =  2.0

     negative rho (up, down):  0.000E+00 1.893E-03

     total cpu time spent up to now is     3553.6 secs

     total energy              =   -3807.99318970 Ry
     estimated scf accuracy    <       0.00000497 Ry

     total magnetization       =    36.62 Bohr mag/cell
     absolute magnetization    =    39.10 Bohr mag/cell

     iteration # 21     ecut=    45.00 Ry     beta= 0.10
     Davidson diagonalization with overlap
     ethr =  1.59E-09,  avg # of iterations =  2.0

     negative rho (up, down):  0.000E+00 1.896E-03

     total cpu time spent up to now is     3575.4 secs

     total energy              =   -3807.99319652 Ry
     estimated scf accuracy    <       0.00000089 Ry

     total magnetization       =    36.62 Bohr mag/cell
     absolute magnetization    =    39.10 Bohr mag/cell

     iteration # 22     ecut=    45.00 Ry     beta= 0.10
     Davidson diagonalization with overlap
     ethr =  3.68E-10,  avg # of iterations =  2.1

     negative rho (up, down):  0.000E+00 1.897E-03

     total cpu time spent up to now is     3597.8 secs

     total energy              =   -3807.99320214 Ry
     estimated scf accuracy    <       0.00000017 Ry

     total magnetization       =    36.62 Bohr mag/cell
     absolute magnetization    =    39.10 Bohr mag/cell

     iteration # 23     ecut=    45.00 Ry     beta= 0.10
     Davidson diagonalization with overlap
     ethr =  6.83E-11,  avg # of iterations =  2.2

     negative rho (up, down):  0.000E+00 1.898E-03

     total cpu time spent up to now is     3620.9 secs

     total energy              =   -3807.99320593 Ry
     estimated scf accuracy    <       0.00000016 Ry

     total magnetization       =    36.62 Bohr mag/cell
     absolute magnetization    =    39.10 Bohr mag/cell

     iteration # 24     ecut=    45.00 Ry     beta= 0.10
     Davidson diagonalization with overlap
     ethr =  6.59E-11,  avg # of iterations =  2.0

     negative rho (up, down):  0.000E+00 1.898E-03

     total cpu time spent up to now is     3644.1 secs

     total energy              =   -3807.99320908 Ry
     estimated scf accuracy    <       0.00000067 Ry

     total magnetization       =    36.62 Bohr mag/cell
     absolute magnetization    =    39.10 Bohr mag/cell

     iteration # 25     ecut=    45.00 Ry     beta= 0.10
     Davidson diagonalization with overlap
     ethr =  6.59E-11,  avg # of iterations =  2.1

     negative rho (up, down):  0.000E+00 1.898E-03

     total cpu time spent up to now is     3667.1 secs

     total energy              =   -3807.99321218 Ry
     estimated scf accuracy    <       0.00000019 Ry

     total magnetization       =    36.62 Bohr mag/cell
     absolute magnetization    =    39.10 Bohr mag/cell

     iteration # 26     ecut=    45.00 Ry     beta= 0.10
     Davidson diagonalization with overlap
     ethr =  6.59E-11,  avg # of iterations =  2.0

     negative rho (up, down):  0.000E+00 1.899E-03

     Magnetic moment per site  (integrated on atomic sphere of radius R)
     atom   1 (R=0.176)  charge= 16.5666  magn=  0.9591
     atom   2 (R=0.176)  charge= 14.2981  magn=  2.6067
     atom   3 (R=0.176)  charge= 14.2981  magn=  2.6067
     atom   4 (R=0.176)  charge= 14.2904  magn=  2.6572
     atom   5 (R=0.176)  charge= 14.2981  magn=  2.6067
     atom   6 (R=0.176)  charge= 14.2904  magn=  2.6572
     atom   7 (R=0.176)  charge= 14.2904  magn=  2.6572
     atom   8 (R=0.176)  charge= 14.2808  magn=  2.6958
     atom   9 (R=0.176)  charge= 14.3638  magn=  2.4427
     atom  10 (R=0.176)  charge= 14.3638  magn=  2.4427
     atom  11 (R=0.176)  charge= 14.2961  magn=  2.6591
     atom  12 (R=0.176)  charge= 14.3638  magn=  2.4427
     atom  13 (R=0.176)  charge= 14.2961  magn=  2.6591
     atom  14 (R=0.176)  charge= 14.2961  magn=  2.6591
     atom  15 (R=0.176)  charge= 14.2484  magn=  2.7904

     total cpu time spent up to now is     3689.0 secs

     End of self-consistent calculation

 ------ SPIN UP ------------


          k = 0.0000 0.0000 0.0000 (  6451 PWs)   bands (ev):

   -88.0684 -72.3788 -72.2596 -72.2486 -72.2486 -72.2006 -72.1861 -72.1861
   -72.1815 -72.1013 -72.1005 -72.1005 -71.9098 -71.9098 -71.9040 -48.2724
   -48.2724 -48.1604 -38.4793 -38.3968 -38.3968 -38.3416 -38.3389 -38.3389
   -38.3239 -38.2891 -38.2891 -38.2799 -38.2729 -38.2575 -38.2565 -38.2565
   -38.2234 -38.2234 -38.1922 -38.1704 -38.1704 -38.1546 -38.1546 -38.1263
   -38.1263 -38.1096 -38.1054 -38.0960 -38.0960 -38.0640 -38.0586 -38.0586
   -38.0525 -38.0525 -38.0473 -37.9748 -37.9212 -37.9212 -37.8650 -37.8650
   -37.8082 -37.8047 -37.8047 -37.8041   8.0824  11.4055  11.4198  11.4198
    11.4593  11.5127  11.5127  11.5493  11.5493  11.6728  11.7495  11.7495
    12.0836  12.0836  12.4138  12.7212  12.7300  12.7300  12.8149  12.8149
    12.8342  12.9549  12.9549  12.9904  13.1667  13.1667  13.2205  13.2397
    13.4347  13.4347  13.4747  13.6042  13.6042  13.7962  13.8086  13.8086
    14.0440  14.0440  14.0656  14.1424  14.1443  14.1443  14.1766  14.1766
    14.2398  14.5497  14.5659  14.5659  14.7384  14.8300  14.8300  14.8497
    14.8497  14.9396  15.0098  15.0161  15.0161  15.0803  15.0803  15.1342
    15.1342  15.1976  15.1976  15.2064  15.2064  15.2233  15.2444  15.4579
    15.5805  15.5805  15.9955  15.9955  16.0440  16.0440  16.1329  16.1329
    16.1568  16.1783  16.2988  16.2988  16.3497  16.5646  16.6087  16.6087
    16.6635

          k = 0.0000 0.0000 0.2500 (  6495 PWs)   bands (ev):

   -88.0685 -72.3788 -72.2584 -72.2500 -72.2488 -72.2008 -72.1862 -72.1857
   -72.1818 -72.1017 -72.1007 -72.1003 -71.9100 -71.9092 -71.9046 -48.2855
   -48.2811 -48.1712 -38.4806 -38.3974 -38.3955 -38.3470 -38.3402 -38.3388
   -38.3227 -38.2951 -38.2879 -38.2817 -38.2731 -38.2638 -38.2559 -38.2464
   -38.2284 -38.2262 -38.1959 -38.1835 -38.1826 -38.1678 -38.1462 -38.1440
   -38.1281 -38.1191 -38.1059 -38.0973 -38.0904 -38.0609 -38.0571 -38.0522
   -38.0493 -38.0383 -38.0376 -37.9710 -37.9316 -37.9272 -37.8622 -37.8600
   -37.8186 -37.8160 -37.8133 -37.8110   8.3824  10.5369  11.5059  11.5098
    11.5364  11.5809  11.6008  11.6308  11.6965  11.7782  11.8271  11.8691
    12.1379  12.1776  12.4380  12.6398  12.6768  12.6850  12.7440  12.7685
    12.8652  12.8849  12.9307  13.1060  13.1071  13.1501  13.2044  13.2525
    13.3333  13.5737  13.5779  13.6039  13.7290  13.7407  13.7631  13.7862
    13.8168  13.8516  13.9052  14.0842  14.0920  14.2796  14.3094  14.3562
    14.3823  14.4655  14.5359  14.5779  14.6055  14.6148  14.6467  14.7198
    14.7852  14.8606  14.9286  14.9550  15.0238  15.0271  15.0790  15.1029
    15.1091  15.1335  15.1562  15.1573  15.1827  15.1886  15.2303  15.2930
    15.3169  15.4702  15.5240  15.5309  15.5998  15.8998  16.0515  16.0792
    16.1040  16.1642  16.2803  16.2811  16.4389  16.6397  16.7875  16.8634
    17.0135

          k = 0.0000 0.0000-0.5000 (  6480 PWs)   bands (ev):

   -88.0685 -72.3787 -72.2566 -72.2519 -72.2487 -72.2009 -72.1861 -72.1850
   -72.1823 -72.1020 -72.1007 -72.1000 -71.9100 -71.9079 -71.9058 -48.2855
   -48.2764 -48.1684 -38.4784 -38.3922 -38.3863 -38.3497 -38.3349 -38.3333
   -38.3013 -38.2996 -38.2980 -38.2895 -38.2734 -38.2606 -38.2543 -38.2408
   -38.2347 -38.2313 -38.2007 -38.1897 -38.1880 -38.1869 -38.1524 -38.1436
   -38.1390 -38.1189 -38.1006 -38.0982 -38.0864 -38.0608 -38.0531 -38.0481
   -38.0472 -38.0266 -38.0238 -37.9637 -37.9387 -37.9273 -37.8555 -37.8479
   -37.8270 -37.8261 -37.8149 -37.8114   9.1389   9.4043  11.6292  11.6429
    11.6438  11.7106  11.7687  11.7950  11.8422  11.8787  11.9442  12.0666
    12.0728  12.2024  12.3229  12.3560  12.3948  12.6166  12.6327  12.6438
    12.9703  12.9724  13.2219  13.2287  13.2845  13.2870  13.2884  13.4213
    13.4471  13.4811  13.5653  13.5993  13.6132  13.6330  13.6578  13.7262
    13.7499  13.7820  13.8029  13.9413  13.9548  14.1286  14.1813  14.2034
    14.2499  14.3047  14.3841  14.4689  14.5103  14.5391  14.6169  14.6486
    14.6982  14.7623  14.7797  14.9197  15.0126  15.0544  15.0687  15.0815
    15.0939  15.1014  15.1572  15.1757  15.1816  15.2049  15.2104  15.2589
    15.4041  15.5170  15.6409  15.6615  15.6775  15.7420  15.7639  15.8197
    15.9094  16.2445  16.4351  16.4601  16.5431  16.6033  16.6613  16.7232
    16.7414

          k = 0.0000 0.2500 0.2500 (  6500 PWs)   bands (ev):

   -88.0685 -72.3787 -72.2571 -72.2508 -72.2493 -72.2010 -72.1860 -72.1851
   -72.1823 -72.1017 -72.1009 -72.1002 -71.9096 -71.9088 -71.9054 -48.2862
   -48.2804 -48.1748 -38.4798 -38.3935 -38.3904 -38.3488 -38.3364 -38.3351
   -38.3172 -38.3008 -38.2880 -38.2866 -38.2799 -38.2605 -38.2588 -38.2397
   -38.2378 -38.2254 -38.1921 -38.1912 -38.1817 -38.1636 -38.1495 -38.1430
   -38.1353 -38.1264 -38.1131 -38.1043 -38.0873 -38.0610 -38.0598 -38.0471
   -38.0435 -38.0398 -38.0357 -37.9635 -37.9327 -37.9296 -37.8556 -37.8501
   -37.8275 -37.8165 -37.8159 -37.8118   8.6819  10.6518  10.8047  11.4212
    11.6910  11.6913  11.7138  11.7384  11.8169  11.9188  11.9580  12.0053
    12.2453  12.2493  12.4923  12.5557  12.6072  12.6984  12.7868  12.8183
    12.8648  12.9177  12.9676  12.9685  13.0224  13.0365  13.2181  13.2796
    13.4008  13.4092  13.5111  13.5826  13.5912  13.6817  13.7075  13.8003
    13.8085  13.9057  13.9275  14.0460  14.1109  14.2204  14.2444  14.2974
    14.3243  14.3409  14.4118  14.4347  14.5259  14.5649  14.6347  14.6367
    14.6841  14.7393  14.7886  14.8161  14.9011  14.9646  15.0135  15.0369
    15.0717  15.0806  15.1106  15.1747  15.1953  15.2157  15.2685  15.3499
    15.3523  15.3972  15.4017  15.4822  15.5160  15.5228  15.5730  15.7238
    15.8027  15.8078  16.0769  16.5277  16.5539  17.6043  17.6540  17.8366
    17.9887

          k = 0.0000 0.2500-0.5000 (  6452 PWs)   bands (ev):

   -88.0684 -72.3786 -72.2556 -72.2519 -72.2495 -72.2011 -72.1859 -72.1847
   -72.1826 -72.1019 -72.1008 -72.0999 -71.9093 -71.9078 -71.9064 -48.2763
   -48.2701 -48.1609 -38.4758 -38.3871 -38.3824 -38.3499 -38.3330 -38.3321
   -38.3080 -38.2994 -38.2947 -38.2879 -38.2778 -38.2619 -38.2536 -38.2446
   -38.2368 -38.2248 -38.1909 -38.1840 -38.1817 -38.1675 -38.1500 -38.1450
   -38.1302 -38.1213 -38.1052 -38.0983 -38.0846 -38.0659 -38.0592 -38.0519
   -38.0459 -38.0340 -38.0315 -37.9537 -37.9366 -37.9285 -37.8475 -37.8398
   -37.8274 -37.8224 -37.8142 -37.8099   9.4113   9.6572  11.0636  11.2431
    11.8424  11.8750  11.9671  11.9995  12.0237  12.0318  12.0703  12.1613
    12.1852  12.2893  12.3478  12.4257  12.4641  12.6454  12.7397  12.7504
    12.9678  12.9936  13.0647  13.0958  13.1274  13.1344  13.2006  13.2875
    13.3562  13.4059  13.5322  13.5496  13.5732  13.6060  13.6444  13.6627
    13.6877  13.7726  13.7900  13.8477  13.9135  13.9563  14.0082  14.1028
    14.1541  14.3244  14.4435  14.4612  14.4748  14.5154  14.6364  14.6603
    14.6960  14.7200  14.7522  14.7687  14.8089  14.8677  14.9106  15.0014
    15.0429  15.0602  15.1151  15.1543  15.1648  15.2042  15.2268  15.2344
    15.2976  15.3572  15.3758  15.3995  15.4695  15.4775  15.5222  15.6454
    15.7638  15.9549  16.0970  17.0269  17.0648  17.1482  17.2245  18.7253
    18.8145

          k = 0.0000-0.5000-0.5000 (  6496 PWs)   bands (ev):

   -88.0685 -72.3786 -72.2540 -72.2527 -72.2505 -72.2013 -72.1858 -72.1841
   -72.1834 -72.1019 -72.1011 -72.0998 -71.9082 -71.9079 -71.9076 -48.2877
   -48.2798 -48.1713 -38.4753 -38.3852 -38.3768 -38.3541 -38.3322 -38.3315
   -38.3189 -38.2987 -38.2967 -38.2907 -38.2873 -38.2691 -38.2549 -38.2462
   -38.2388 -38.2253 -38.1850 -38.1844 -38.1762 -38.1505 -38.1477 -38.1449
   -38.1379 -38.1123 -38.1078 -38.1014 -38.0972 -38.0842 -38.0713 -38.0604
   -38.0526 -38.0408 -38.0387 -37.9457 -37.9397 -37.9333 -37.8419 -37.8331
   -37.8320 -37.8212 -37.8205 -37.8100  10.0881  10.1586  10.2121  10.6493
    12.0550  12.0763  12.1103  12.1490  12.2216  12.2404  12.2445  12.3057
    12.3573  12.3805  12.5322  12.5794  12.6358  12.6361  12.6669  12.6813
    12.8262  12.8783  12.8801  12.8971  12.9538  12.9891  13.0166  13.2434
    13.3341  13.3773  13.4321  13.4506  13.5217  13.5270  13.5319  13.5592
    13.6039  13.6881  13.7149  13.7253  13.7715  13.7743  13.8725  14.0668
    14.1249  14.2999  14.3168  14.4169  14.4884  14.5798  14.5928  14.6359
    14.6846  14.6971  14.7324  14.7424  14.7924  14.8110  14.8345  14.9161
    14.9199  14.9611  15.0067  15.0405  15.0547  15.0958  15.1311  15.1832
    15.1899  15.2075  15.2345  15.3110  15.3827  15.4194  15.4455  15.6660
    15.7785  16.0467  16.2043  17.8328  17.8847  17.9713  18.0607  18.1354
    18.2847

          k = 0.2500 0.2500 0.2500 (  6493 PWs)   bands (ev):

   -88.0685 -72.3787 -72.2558 -72.2507 -72.2507 -72.2011 -72.1851 -72.1851
   -72.1831 -72.1010 -72.1009 -72.1009 -71.9087 -71.9087 -71.9062 -48.2831
   -48.2831 -48.1706 -38.4778 -38.3867 -38.3867 -38.3500 -38.3318 -38.3318
   -38.3096 -38.3029 -38.2897 -38.2897 -38.2857 -38.2573 -38.2573 -38.2395
   -38.2395 -38.2349 -38.1902 -38.1902 -38.1820 -38.1582 -38.1582 -38.1392
   -38.1392 -38.1299 -38.1162 -38.0897 -38.0897 -38.0654 -38.0654 -38.0590
   -38.0390 -38.0358 -38.0358 -37.9577 -37.9331 -37.9331 -37.8453 -37.8453
   -37.8335 -37.8153 -37.8153 -37.8150   8.9739  10.8711  10.8711  11.0724
    11.6213  11.6213  11.6903  11.9046  11.9046  12.0193  12.1424  12.1424
    12.4039  12.4039  12.5320  12.5566  12.6042  12.7162  12.7162  12.8373
    12.8373  12.9185  12.9614  13.0146  13.0146  13.1181  13.1181  13.2937
    13.3564  13.3593  13.3593  13.4262  13.4262  13.5991  13.5991  13.7229
    13.7229  13.7370  13.8037  13.9079  13.9079  13.9771  14.1496  14.1496
    14.2402  14.2402  14.3478  14.5472  14.5472  14.5557  14.6068  14.6924
    14.6924  14.7700  14.8205  14.8428  14.8428  14.9082  14.9790  14.9790
    15.0525  15.0589  15.0589  15.1660  15.1660  15.2040  15.2060  15.2060
    15.2250  15.3207  15.3207  15.5315  15.5315  15.6106  15.6905  15.6905
    15.7335  15.7335  15.8638  16.5744  16.5744  16.6444  18.5280  18.5280
    18.7197

          k = 0.2500 0.2500-0.5000 (  6456 PWs)   bands (ev):

   -88.0684 -72.3786 -72.2547 -72.2517 -72.2506 -72.2012 -72.1851 -72.1849
   -72.1831 -72.1016 -72.1008 -72.1002 -71.9087 -71.9079 -71.9069 -48.2776
   -48.2720 -48.1607 -38.4743 -38.3827 -38.3791 -38.3498 -38.3313 -38.3299
   -38.3046 -38.2988 -38.2957 -38.2920 -38.2807 -38.2590 -38.2574 -38.2417
   -38.2366 -38.2285 -38.1870 -38.1864 -38.1776 -38.1601 -38.1519 -38.1485
   -38.1291 -38.1261 -38.1089 -38.1026 -38.0992 -38.0660 -38.0572 -38.0565
   -38.0395 -38.0373 -38.0273 -37.9511 -37.9383 -37.9321 -37.8465 -37.8372
   -37.8311 -37.8211 -37.8133 -37.8116   9.6862   9.9147  11.2932  11.3119
    11.3780  11.5775  12.1371  12.1548  12.1892  12.1978  12.2031  12.2257
    12.3071  12.3552  12.4061  12.5254  12.5579  12.6725  12.7547  12.8555
    12.9603  12.9915  13.0045  13.0430  13.0438  13.1068  13.1570  13.1870
    13.2381  13.2859  13.3754  13.4376  13.4504  13.4718  13.5064  13.5320
    13.5565  13.5762  13.5794  13.6265  13.7028  13.7722  13.8030  13.9518
    14.0811  14.2081  14.3449  14.3972  14.5647  14.6074  14.6317  14.6968
    14.7257  14.7353  14.7711  14.8194  14.8414  14.9247  14.9715  15.0307
    15.0460  15.0758  15.1199  15.1268  15.1669  15.1951  15.1988  15.2446
    15.2524  15.3300  15.3788  15.4168  15.4667  15.7071  15.7086  15.7667
    15.8212  15.8422  15.9082  15.9962  16.0522  17.7075  17.8981  19.2304
    19.2486

          k = 0.2500-0.5000-0.5000 (  6472 PWs)   bands (ev):

   -88.0685 -72.3786 -72.2534 -72.2525 -72.2510 -72.2014 -72.1853 -72.1842
   -72.1836 -72.1016 -72.1010 -72.1001 -71.9084 -71.9076 -71.9075 -48.2781
   -48.2774 -48.1657 -38.4730 -38.3775 -38.3729 -38.3512 -38.3301 -38.3294
   -38.3110 -38.2965 -38.2920 -38.2882 -38.2828 -38.2632 -38.2566 -38.2416
   -38.2378 -38.2287 -38.1843 -38.1824 -38.1709 -38.1543 -38.1543 -38.1430
   -38.1420 -38.1291 -38.1258 -38.1192 -38.1122 -38.0600 -38.0544 -38.0485
   -38.0416 -38.0318 -38.0294 -37.9478 -37.9426 -37.9372 -37.8448 -37.8368
   -37.8356 -37.8204 -37.8166 -37.8136  10.3527  10.4315  10.4758  10.8630
    11.8012  11.9222  11.9282  12.1654  12.2474  12.2711  12.3422  12.5571
    12.5585  12.6085  12.6230  12.6708  12.6771  12.7043  12.7082  12.7780
    12.8094  12.8683  12.8689  12.9048  12.9431  12.9705  13.0137  13.1090
    13.1418  13.1909  13.1960  13.3006  13.3103  13.3248  13.3592  13.3708
    13.4153  13.4353  13.4540  13.5421  13.5672  13.5821  13.6389  13.6736
    13.7703  14.2133  14.2154  14.2794  14.6916  14.6926  14.7280  14.8007
    14.8107  14.8515  14.8783  14.8833  14.9501  14.9554  14.9971  15.0333
    15.0576  15.1157  15.1317  15.1338  15.1775  15.1998  15.2061  15.2151
    15.2451  15.2530  15.3026  15.3547  15.3897  15.4212  15.4858  15.6112
    15.6552  15.8184  15.9430  16.6972  16.7392  16.7518  16.8730  20.1744
    20.3112

          k =-0.5000-0.5000-0.5000 (  6488 PWs)   bands (ev):

   -88.0684 -72.3785 -72.2525 -72.2525 -72.2520 -72.2015 -72.1846 -72.1842
   -72.1842 -72.1010 -72.1010 -72.1007 -71.9085 -71.9075 -71.9075 -48.2798
   -48.2798 -48.1678 -38.4711 -38.3681 -38.3681 -38.3510 -38.3267 -38.3267
   -38.3121 -38.2907 -38.2907 -38.2820 -38.2813 -38.2547 -38.2547 -38.2393
   -38.2393 -38.2387 -38.1894 -38.1894 -38.1605 -38.1560 -38.1560 -38.1515
   -38.1391 -38.1377 -38.1377 -38.1332 -38.1332 -38.0437 -38.0405 -38.0405
   -38.0387 -38.0269 -38.0269 -37.9473 -37.9473 -37.9451 -37.8466 -37.8383
   -37.8383 -37.8236 -37.8188 -37.8188  10.9663  11.1068  11.1068  11.1639
    11.1900  11.2060  11.2060  12.0627  12.6483  12.6483  12.6840  12.6840
    12.7119  12.7155  12.7222  12.7222  12.7280  12.7842  12.7842  12.8117
    12.8487  12.8487  12.9018  12.9018  12.9442  12.9442  12.9808  13.0388
    13.0388  13.0847  13.1109  13.1357  13.1379  13.1379  13.1608  13.1825
    13.1825  13.1961  13.1961  13.2039  13.2251  13.2591  13.2591  13.5678
    13.5678  14.1629  14.1790  14.1790  14.7547  14.7547  14.8671  14.8671
    14.8763  14.9337  14.9337  14.9758  14.9758  15.0110  15.0168  15.0804
    15.0804  15.1335  15.1437  15.1437  15.2297  15.3308  15.3308  15.3700
    15.3700  15.3813  15.4471  15.4471  15.5264  15.5901  15.5901  15.7077
    15.7077  15.7480  15.8264  16.0405  16.0405  16.0559  16.1344  22.3716
    22.3716

          k =-0.2500 0.0000 0.2500 (  6500 PWs)   bands (ev):

   -88.0685 -72.3787 -72.2574 -72.2502 -72.2495 -72.2010 -72.1860 -72.1856
   -72.1820 -72.1020 -72.1008 -72.1000 -71.9095 -71.9091 -71.9052 -48.2874
   -48.2839 -48.1700 -38.4785 -38.3922 -38.3918 -38.3498 -38.3389 -38.3374
   -38.3145 -38.3001 -38.2898 -38.2888 -38.2730 -38.2651 -38.2555 -38.2485
   -38.2345 -38.2292 -38.1984 -38.1866 -38.1836 -38.1549 -38.1520 -38.1422
   -38.1305 -38.1157 -38.1060 -38.1015 -38.0883 -38.0647 -38.0601 -38.0583
   -38.0476 -38.0387 -38.0374 -37.9646 -37.9335 -37.9297 -37.8596 -37.8512
   -37.8218 -37.8182 -37.8145 -37.8092   8.6823  10.6162  10.8454  11.4135
    11.6871  11.7015  11.7252  11.7664  11.7827  11.9297  11.9450  11.9982
    12.2277  12.2433  12.4969  12.5644  12.6019  12.7149  12.7747  12.8247
    12.8529  12.8988  12.9750  13.0033  13.0211  13.0268  13.2163  13.3047
    13.4117  13.4337  13.5131  13.5403  13.6331  13.6658  13.7111  13.7777
    13.8057  13.8908  13.9172  14.0379  14.1047  14.1934  14.2691  14.3399
    14.3659  14.3766  14.4258  14.4404  14.4632  14.5221  14.5841  14.6207
    14.6601  14.7764  14.8269  14.8540  14.9085  14.9420  15.0127  15.0461
    15.0755  15.1208  15.1457  15.1637  15.1696  15.2163  15.2618  15.3104
    15.3439  15.4047  15.4398  15.4592  15.5215  15.5365  15.6018  15.6277
    15.6988  15.7723  16.2228  16.5306  16.5629  17.5037  17.6664  17.8443
    18.0748

          k = 0.2500-0.2500 0.2500 (  6493 PWs)   bands (ev):

   -88.0685 -72.3787 -72.2565 -72.2507 -72.2499 -72.2011 -72.1859 -72.1851
   -72.1824 -72.1020 -72.1009 -72.0999 -71.9092 -71.9087 -71.9058 -48.2831
   -48.2827 -48.1710 -38.4770 -38.3876 -38.3858 -38.3505 -38.3355 -38.3341
   -38.3065 -38.3036 -38.2940 -38.2887 -38.2777 -38.2625 -38.2615 -38.2427
   -38.2407 -38.2258 -38.1926 -38.1871 -38.1774 -38.1575 -38.1570 -38.1383
   -38.1338 -38.1262 -38.1235 -38.0994 -38.0965 -38.0622 -38.0609 -38.0481
   -38.0401 -38.0377 -38.0367 -37.9607 -37.9332 -37.9332 -37.8561 -37.8430
   -37.8272 -37.8196 -37.8127 -37.8127   8.9748  10.8219  10.8713  11.1282
    11.5858  11.6091  11.7429  11.8920  11.9310  12.0428  12.1221  12.1321
    12.3852  12.3915  12.5325  12.5548  12.5791  12.7330  12.7408  12.8321
    12.8582  12.9006  12.9322  13.0267  13.0500  13.1113  13.1265  13.3179
    13.3240  13.3532  13.3823  13.4307  13.4529  13.5847  13.6004  13.7186
    13.7318  13.7531  13.7593  13.9009  13.9614  14.0092  14.1285  14.1648
    14.2077  14.2117  14.3743  14.4539  14.4606  14.5408  14.5556  14.6687
    14.7129  14.7388  14.8004  14.8807  14.9031  14.9360  14.9907  14.9976
    15.0425  15.0848  15.1078  15.1191  15.1496  15.1688  15.2057  15.2075
    15.3233  15.3400  15.3867  15.4707  15.5296  15.5715  15.6125  15.6933
    15.7434  15.8639  15.8675  16.5529  16.5544  16.6701  18.4700  18.5285
    18.7743

          k = 0.2500-0.2500-0.5000 (  6456 PWs)   bands (ev):

   -88.0684 -72.3786 -72.2550 -72.2520 -72.2499 -72.2012 -72.1858 -72.1845
   -72.1829 -72.1019 -72.1009 -72.0998 -71.9091 -71.9077 -71.9067 -48.2738
   -48.2733 -48.1633 -38.4746 -38.3826 -38.3787 -38.3511 -38.3329 -38.3301
   -38.3090 -38.3015 -38.2925 -38.2854 -38.2762 -38.2624 -38.2577 -38.2412
   -38.2381 -38.2264 -38.1842 -38.1828 -38.1714 -38.1649 -38.1519 -38.1416
   -38.1385 -38.1323 -38.1205 -38.1090 -38.0968 -38.0642 -38.0573 -38.0438
   -38.0389 -38.0345 -38.0243 -37.9535 -37.9385 -37.9323 -37.8466 -37.8389
   -37.8301 -37.8207 -37.8148 -37.8122   9.6856   9.9162  11.2512  11.3483
    11.3540  11.6174  12.1230  12.1461  12.1758  12.1959  12.2292  12.2461
    12.2946  12.3752  12.4007  12.5169  12.5568  12.6929  12.7396  12.8483
    12.9332  12.9799  13.0035  13.0369  13.0762  13.1153  13.1549  13.2059
    13.2677  13.3296  13.3676  13.4214  13.4385  13.4556  13.5087  13.5185
    13.5405  13.5485  13.5866  13.5941  13.7132  13.7839  13.8106  13.9649
    14.0669  14.2308  14.3327  14.3976  14.5338  14.5703  14.6423  14.6620
    14.7017  14.7471  14.7890  14.8058  14.8158  14.9522  14.9725  15.0329
    15.0466  15.0698  15.1251  15.1422  15.1624  15.1814  15.2056  15.2527
    15.2689  15.3484  15.3875  15.4576  15.4699  15.6267  15.7084  15.8119
    15.8645  15.8723  15.8873  16.0272  16.0485  17.6832  17.8698  19.1675
    19.2461

 ------ SPIN DOWN ----------


          k = 0.0000 0.0000 0.0000 (  6451 PWs)   bands (ev):

   -86.7301 -68.9358 -68.9145 -68.9145 -68.8824 -68.8680 -68.8531 -68.8531
   -68.8425 -68.8418 -68.8418 -68.8377 -68.8377 -68.8219 -68.7962 -46.9246
   -46.9246 -46.8507 -35.2019 -35.1888 -35.1888 -35.1569 -35.1387 -35.1387
   -35.0675 -35.0675 -35.0670 -35.0181 -35.0153 -35.0153 -35.0025 -35.0025
   -34.9971 -34.9971 -34.9971 -34.9836 -34.9682 -34.9682 -34.9623 -34.9587
   -34.9556 -34.9556 -34.9464 -34.9423 -34.9423 -34.9308 -34.9170 -34.9170
   -34.9008 -34.9008 -34.8836 -34.8467 -34.8214 -34.8214 -34.8094 -34.8094
   -34.7857 -34.7789 -34.7789 -34.7726   8.2169  12.1759  12.2446  12.2446
    12.3481  12.3481  12.5180  12.9094  12.9094  13.0142  13.0299  13.0299
    13.5839  13.7558  13.7558  14.3304  14.3304  14.4313  14.7098  14.7098
    14.7463  14.9166  14.9166  14.9854  15.2056  15.2056  15.3768  15.4657
    15.4657  15.6894  15.7327  15.9065  16.0648  16.0648  16.1476  16.1476
    16.3618  16.3618  16.4035  16.4766  16.4857  16.4857  16.5361  16.5361
    16.5657  16.7582  16.7582  16.8870  17.0124  17.0124  17.0853  17.2841
    17.2841  17.3454  17.3454  17.4208  17.5523  17.5523  17.6434  17.8859
    17.9932  17.9932  18.0414  18.1033  18.1033  18.2212  18.2212  18.3567
    18.3567  18.3982  18.4075  18.4131  18.4131  18.4345  18.5755  18.5755
    18.7777  18.7777  18.8233  18.8233  18.8822  18.8822  18.9166  18.9662
    19.0517

          k = 0.0000 0.0000 0.2500 (  6495 PWs)   bands (ev):

   -86.7301 -68.9328 -68.9169 -68.9145 -68.8825 -68.8703 -68.8559 -68.8529
   -68.8454 -68.8422 -68.8421 -68.8378 -68.8294 -68.8197 -68.7990 -46.9374
   -46.9332 -46.8611 -35.1939 -35.1821 -35.1802 -35.1469 -35.1357 -35.1351
   -35.0811 -35.0778 -35.0704 -35.0652 -35.0600 -35.0448 -35.0359 -35.0177
   -35.0126 -35.0034 -34.9812 -34.9761 -34.9732 -34.9646 -34.9574 -34.9516
   -34.9336 -34.9292 -34.9246 -34.9211 -34.9161 -34.9087 -34.9044 -34.8987
   -34.8956 -34.8858 -34.8794 -34.8538 -34.8344 -34.8308 -34.8215 -34.8188
   -34.8068 -34.7985 -34.7958 -34.7895   8.5211  10.7962  12.4048  12.4057
    12.5052  12.5720  12.9232  12.9555  12.9973  13.0006  13.2136  13.3282
    13.6811  13.8770  13.8813  14.2547  14.3402  14.3833  14.5347  14.7995
    14.8017  14.8599  14.9322  15.0180  15.0650  15.0849  15.3749  15.3769
    15.4523  15.4836  15.6363  15.8052  15.8888  15.9126  15.9891  16.0627
    16.0836  16.1234  16.1774  16.2374  16.2705  16.3377  16.3468  16.4922
    16.5121  16.6693  16.7818  16.8454  16.8764  16.9091  17.0852  17.1744
    17.2278  17.2972  17.3911  17.6584  17.7187  17.7379  17.8019  17.8693
    17.9327  17.9708  18.0530  18.0769  18.1516  18.1676  18.2700  18.3241
    18.3491  18.3764  18.4105  18.4886  18.5156  18.6276  18.6537  18.7039
    18.7041  18.7280  18.8344  18.8460  18.8637  18.9125  18.9508  18.9657
    18.9862

          k = 0.0000 0.0000-0.5000 (  6480 PWs)   bands (ev):

   -86.7301 -68.9275 -68.9215 -68.9145 -68.8827 -68.8727 -68.8574 -68.8526
   -68.8458 -68.8424 -68.8423 -68.8378 -68.8266 -68.8133 -68.8042 -46.9374
   -46.9288 -46.8582 -35.1465 -35.1455 -35.1415 -35.1387 -35.1366 -35.1212
   -35.1197 -35.1129 -35.1117 -35.0988 -35.0761 -35.0675 -35.0606 -35.0215
   -35.0148 -35.0041 -34.9898 -34.9874 -34.9799 -34.9671 -34.9607 -34.9463
   -34.9269 -34.9101 -34.9023 -34.8972 -34.8925 -34.8898 -34.8868 -34.8792
   -34.8738 -34.8736 -34.8573 -34.8506 -34.8452 -34.8372 -34.8286 -34.8238
   -34.8221 -34.8162 -34.8152 -34.8052   9.2877   9.5740  12.6240  12.6787
    12.7066  12.7540  12.8827  12.8939  12.9297  13.1441  13.5390  13.6334
    13.7641  13.9494  13.9959  14.0648  14.1218  14.3121  14.4530  14.5566
    14.8545  14.8609  14.9519  15.0773  15.1870  15.2791  15.3598  15.3888
    15.4284  15.4434  15.4487  15.5484  15.5784  15.5847  15.6449  15.8183
    15.8308  15.8635  15.9593  16.0068  16.0722  16.1514  16.1761  16.3282
    16.3424  16.6147  16.7581  17.0153  17.0806  17.2500  17.3335  17.3419
    17.4340  17.4645  17.5089  17.6228  17.6944  17.7654  17.7706  17.8215
    17.8957  17.9320  18.0825  18.2136  18.2467  18.3093  18.3275  18.3386
    18.3631  18.3950  18.4250  18.4523  18.4800  18.4991  18.5235  18.6064
    18.6066  18.7166  18.7818  18.8351  18.8412  18.9546  19.0131  19.0574
    19.0644

          k = 0.0000 0.2500 0.2500 (  6500 PWs)   bands (ev):

   -86.7301 -68.9298 -68.9181 -68.9154 -68.8830 -68.8695 -68.8608 -68.8536
   -68.8463 -68.8446 -68.8413 -68.8330 -68.8238 -68.8207 -68.8014 -46.9381
   -46.9324 -46.8647 -35.1861 -35.1668 -35.1570 -35.1343 -35.1260 -35.1253
   -35.1177 -35.1003 -35.0931 -35.0859 -35.0561 -35.0508 -35.0361 -35.0114
   -35.0036 -35.0017 -34.9948 -34.9774 -34.9764 -34.9707 -34.9676 -34.9581
   -34.9413 -34.9411 -34.9281 -34.9241 -34.9067 -34.8985 -34.8903 -34.8823
   -34.8793 -34.8656 -34.8583 -34.8570 -34.8400 -34.8304 -34.8304 -34.8236
   -34.8196 -34.8071 -34.7926 -34.7889   8.8241  10.9700  11.1023  12.4204
    12.6443  12.6769  13.0588  13.1800  13.2241  13.2545  13.4196  13.5250
    13.7986  13.9232  14.0474  14.2107  14.3247  14.3850  14.5492  14.7090
    14.7979  14.8116  14.8719  14.9497  15.0582  15.0606  15.1562  15.2774
    15.3621  15.4643  15.5362  15.6483  15.6934  15.7579  15.7919  15.8477
    15.9260  15.9545  16.0160  16.1158  16.1431  16.2012  16.2789  16.4163
    16.4947  16.6171  16.6983  16.8549  16.9687  17.0901  17.1340  17.1601
    17.2910  17.3169  17.4060  17.5255  17.5852  17.7389  17.8263  17.9308
    17.9934  18.0347  18.0509  18.1031  18.1325  18.2099  18.2274  18.2709
    18.2839  18.3617  18.3810  18.3911  18.4482  18.4541  18.4727  18.5533
    18.5579  18.6899  18.8405  18.9925  19.0420  19.5093  19.6337  19.7077
    19.7176

          k = 0.0000 0.2500-0.5000 (  6452 PWs)   bands (ev):

   -86.7301 -68.9255 -68.9209 -68.9159 -68.8832 -68.8714 -68.8610 -68.8558
   -68.8467 -68.8446 -68.8408 -68.8316 -68.8238 -68.8142 -68.8059 -46.9284
   -46.9224 -46.8510 -35.1567 -35.1488 -35.1416 -35.1363 -35.1336 -35.1290
   -35.1144 -35.1067 -35.0975 -35.0731 -35.0649 -35.0588 -35.0437 -35.0321
   -35.0145 -34.9946 -34.9928 -34.9816 -34.9762 -34.9730 -34.9689 -34.9519
   -34.9333 -34.9314 -34.9250 -34.9136 -34.9097 -34.8975 -34.8904 -34.8738
   -34.8720 -34.8661 -34.8522 -34.8476 -34.8324 -34.8304 -34.8246 -34.8201
   -34.8127 -34.8066 -34.8040 -34.7929   9.5720   9.8438  11.5499  11.8270
    12.8883  12.9432  13.1086  13.2022  13.5094  13.5804  13.6570  13.6878
    13.8491  13.9484  14.0304  14.0992  14.1938  14.3876  14.4565  14.6280
    14.7425  14.8325  14.9133  15.0091  15.0472  15.0789  15.1723  15.2227
    15.2672  15.3457  15.3880  15.4866  15.5087  15.6089  15.6305  15.6735
    15.7041  15.7692  15.8300  15.9187  16.0045  16.0717  16.1551  16.4144
    16.4745  16.5364  16.8607  16.9324  17.0252  17.1377  17.2192  17.3425
    17.4029  17.4257  17.4979  17.5313  17.5676  17.5959  17.7040  17.8153
    17.8882  17.9670  18.0193  18.0731  18.1255  18.2224  18.2586  18.2756
    18.3213  18.3462  18.3811  18.4005  18.4135  18.4351  18.4695  18.5344
    18.6386  18.7260  18.8553  19.2520  19.3238  19.3510  19.4050  20.1813
    20.4242

          k = 0.0000-0.5000-0.5000 (  6496 PWs)   bands (ev):

   -86.7301 -68.9217 -68.9210 -68.9185 -68.8837 -68.8686 -68.8649 -68.8601
   -68.8463 -68.8448 -68.8396 -68.8291 -68.8188 -68.8158 -68.8085 -46.9397
   -46.9317 -46.8612 -35.1616 -35.1451 -35.1426 -35.1423 -35.1403 -35.1318
   -35.1141 -35.1078 -35.0914 -35.0634 -35.0504 -35.0449 -35.0145 -35.0119
   -35.0073 -34.9998 -34.9969 -34.9919 -34.9889 -34.9856 -34.9782 -34.9671
   -34.9596 -34.9554 -34.9449 -34.9401 -34.9225 -34.9048 -34.8860 -34.8775
   -34.8696 -34.8690 -34.8556 -34.8436 -34.8337 -34.8274 -34.8233 -34.8187
   -34.8091 -34.7976 -34.7960 -34.7864  10.2934  10.4356  10.4458  10.9465
    13.3063  13.3124  13.3397  13.4855  13.5421  13.6291  13.6381  13.7657
    13.9770  13.9959  14.0396  14.0640  14.3974  14.4017  14.5258  14.5260
    14.6899  14.7191  14.7210  14.7837  14.8685  14.9824  15.0477  15.0491
    15.2601  15.2767  15.3507  15.3654  15.4072  15.4505  15.5082  15.5327
    15.6574  15.6974  15.7479  15.9083  16.0124  16.0999  16.1996  16.4360
    16.4705  16.6062  16.6345  16.9022  16.9241  16.9792  17.1393  17.2386
    17.2682  17.3764  17.4905  17.5791  17.6404  17.6959  17.7129  17.7812
    17.8298  17.8779  17.9479  17.9516  18.0576  18.1018  18.1544  18.2282
    18.2477  18.2828  18.2918  18.3162  18.3479  18.4188  18.4499  18.5808
    18.7310  18.8032  18.9916  19.8242  19.8898  20.0074  20.0969  20.1521
    20.2640

          k = 0.2500 0.2500 0.2500 (  6493 PWs)   bands (ev):

   -86.7301 -68.9268 -68.9178 -68.9178 -68.8836 -68.8665 -68.8617 -68.8617
   -68.8440 -68.8440 -68.8430 -68.8237 -68.8237 -68.8237 -68.8032 -46.9351
   -46.9351 -46.8606 -35.1752 -35.1389 -35.1389 -35.1280 -35.1280 -35.1228
   -35.1190 -35.1190 -35.1159 -35.0585 -35.0585 -35.0463 -35.0463 -35.0382
   -35.0255 -35.0096 -34.9925 -34.9925 -34.9756 -34.9724 -34.9724 -34.9380
   -34.9380 -34.9247 -34.9181 -34.9181 -34.9093 -34.9093 -34.9064 -34.8954
   -34.8772 -34.8547 -34.8547 -34.8523 -34.8318 -34.8259 -34.8259 -34.8206
   -34.8206 -34.8034 -34.8034 -34.7920   9.1201  11.2193  11.2193  11.4067
    12.6247  12.6247  12.7907  13.4242  13.4242  13.5870  13.6924  13.6924
    14.0256  14.0720  14.0720  14.0952  14.4045  14.4142  14.4142  14.7624
    14.7688  14.7688  14.8509  14.8509  15.0662  15.0674  15.0674  15.0765
    15.4119  15.4119  15.4235  15.4666  15.4666  15.6752  15.6889  15.6889
    15.7282  15.7575  15.7575  15.9761  15.9761  16.1647  16.1647  16.2960
    16.4866  16.6226  16.6226  17.0394  17.1566  17.1566  17.2359  17.2359
    17.2747  17.3672  17.5253  17.5253  17.5381  17.7681  17.7959  17.7959
    17.9292  18.0334  18.0334  18.1160  18.1884  18.1884  18.2524  18.2524
    18.3198  18.3198  18.3443  18.3996  18.3996  18.4947  18.4947  18.5622
    18.5639  18.5639  18.6556  18.9876  18.9876  19.0090  20.2393  20.2393
    20.3806

          k = 0.2500 0.2500-0.5000 (  6456 PWs)   bands (ev):

   -86.7301 -68.9236 -68.9199 -68.9174 -68.8840 -68.8698 -68.8627 -68.8604
   -68.8456 -68.8434 -68.8419 -68.8271 -68.8236 -68.8150 -68.8068 -46.9297
   -46.9241 -46.8510 -35.1521 -35.1465 -35.1463 -35.1289 -35.1239 -35.1188
   -35.1037 -35.1014 -35.0859 -35.0796 -35.0654 -35.0503 -35.0452 -35.0306
   -35.0237 -35.0161 -35.0064 -34.9982 -34.9836 -34.9794 -34.9786 -34.9425
   -34.9412 -34.9348 -34.9240 -34.9087 -34.9000 -34.8947 -34.8893 -34.8761
   -34.8759 -34.8612 -34.8556 -34.8516 -34.8321 -34.8259 -34.8237 -34.8192
   -34.8085 -34.8078 -34.8023 -34.7957   9.8556  10.1133  11.8009  11.8022
    11.9467  12.2116  13.2007  13.5165  13.6320  13.7090  13.7930  13.8216
    13.9584  14.0736  14.1845  14.2283  14.3250  14.4097  14.5809  14.6210
    14.6553  14.8658  14.9022  14.9215  14.9601  15.0024  15.0937  15.1271
    15.1808  15.2115  15.3438  15.4015  15.4207  15.4823  15.5558  15.5702
    15.6007  15.6946  15.7536  15.8112  15.8557  15.9142  15.9778  16.2695
    16.4251  16.5270  16.7480  16.8488  17.0374  17.1411  17.3085  17.3676
    17.4243  17.5250  17.5552  17.5869  17.7136  17.7178  17.8397  17.8668
    17.9879  18.0041  18.1074  18.1519  18.1827  18.2037  18.2242  18.2554
    18.2751  18.3273  18.3349  18.3477  18.3865  18.4528  18.4751  18.5114
    18.5375  18.5809  18.6147  18.6322  18.7061  19.8274  19.9863  20.7645
    20.8246

          k = 0.2500-0.5000-0.5000 (  6472 PWs)   bands (ev):

   -86.7301 -68.9210 -68.9206 -68.9179 -68.8847 -68.8692 -68.8675 -68.8589
   -68.8471 -68.8427 -68.8403 -68.8294 -68.8175 -68.8161 -68.8086 -46.9302
   -46.9295 -46.8559 -35.1460 -35.1331 -35.1312 -35.1242 -35.1221 -35.1175
   -35.1040 -35.0951 -35.0866 -35.0669 -35.0468 -35.0460 -35.0448 -35.0404
   -35.0365 -35.0312 -35.0276 -35.0206 -35.0065 -34.9894 -34.9847 -34.9401
   -34.9342 -34.9308 -34.9123 -34.9067 -34.9013 -34.8944 -34.8840 -34.8813
   -34.8698 -34.8635 -34.8545 -34.8482 -34.8321 -34.8320 -34.8265 -34.8212
   -34.8140 -34.8089 -34.8058 -34.7974  10.5641  10.7140  10.7176  11.1681
    12.3872  12.5339  12.5412  13.0860  13.8102  13.9364  14.0418  14.0874
    14.1090  14.2070  14.2702  14.3737  14.4868  14.4970  14.5650  14.5868
    14.7079  14.7153  14.8023  14.8476  14.8586  14.9803  14.9998  15.0835
    15.1439  15.2128  15.2435  15.2974  15.3366  15.4006  15.4525  15.4761
    15.5079  15.6055  15.6119  15.7153  15.7235  15.8119  15.9059  15.9465
    16.0654  16.6127  16.6244  16.7509  17.1354  17.1886  17.4042  17.4343
    17.5890  17.6664  17.6923  17.7142  17.7827  17.8704  17.8768  17.8959
    17.9126  17.9865  18.0251  18.0485  18.0858  18.1651  18.1770  18.2097
    18.2171  18.2523  18.2926  18.2972  18.3114  18.3659  18.3783  18.4465
    18.5132  18.5641  18.6658  19.1005  19.1472  19.1664  19.2184  21.6758
    21.8407

          k =-0.5000-0.5000-0.5000 (  6488 PWs)   bands (ev):

   -86.7301 -68.9202 -68.9202 -68.9173 -68.8857 -68.8697 -68.8697 -68.8575
   -68.8482 -68.8409 -68.8409 -68.8294 -68.8163 -68.8163 -68.8087 -46.9319
   -46.9319 -46.8579 -35.1085 -35.1085 -35.1006 -35.1000 -35.1000 -35.0943
   -35.0906 -35.0906 -35.0823 -35.0777 -35.0777 -35.0742 -35.0741 -35.0741
   -35.0637 -35.0546 -35.0388 -35.0388 -35.0189 -34.9879 -34.9879 -34.9320
   -34.9320 -34.9253 -34.8823 -34.8823 -34.8813 -34.8764 -34.8764 -34.8721
   -34.8689 -34.8630 -34.8630 -34.8493 -34.8410 -34.8369 -34.8369 -34.8269
   -34.8269 -34.8212 -34.8212 -34.8095  11.1903  11.4244  11.4244  11.4618
    11.5146  11.5561  11.5561  12.5400  13.9950  13.9950  14.1810  14.1810
    14.2689  14.5850  14.5850  14.6005  14.6275  14.7029  14.7029  14.7249
    14.7249  14.8348  14.8382  14.8382  14.8691  15.0366  15.0561  15.0561
    15.0904  15.0904  15.2540  15.2770  15.2770  15.3227  15.3347  15.3347
    15.3380  15.3645  15.4524  15.4524  15.4619  15.5523  15.5523  15.6174
    15.6174  16.6395  16.6401  16.6401  17.2862  17.2862  17.4992  17.4992
    17.7366  17.9245  17.9245  17.9524  17.9909  17.9909  18.0206  18.0206
    18.0584  18.1264  18.1264  18.1413  18.1413  18.1698  18.2060  18.2138
    18.2653  18.2653  18.2779  18.2905  18.2905  18.3441  18.3441  18.3833
    18.3854  18.3854  18.4056  18.5345  18.5345  18.5461  18.8224  23.4596
    23.4596

          k =-0.2500 0.0000 0.2500 (  6500 PWs)   bands (ev):

   -86.7301 -68.9304 -68.9167 -68.9160 -68.8827 -68.8716 -68.8576 -68.8542
   -68.8471 -68.8441 -68.8414 -68.8317 -68.8287 -68.8174 -68.8016 -46.9392
   -46.9359 -46.8600 -35.1806 -35.1752 -35.1716 -35.1438 -35.1231 -35.1217
   -35.1054 -35.1031 -35.0809 -35.0641 -35.0575 -35.0518 -35.0346 -35.0143
   -35.0053 -35.0027 -34.9875 -34.9831 -34.9756 -34.9730 -34.9668 -34.9658
   -34.9575 -34.9341 -34.9224 -34.9203 -34.9147 -34.9049 -34.8935 -34.8881
   -34.8811 -34.8673 -34.8610 -34.8521 -34.8428 -34.8323 -34.8273 -34.8200
   -34.8062 -34.8020 -34.8002 -34.7871   8.8258  10.8924  11.1861  12.4122
    12.6418  12.6663  13.0874  13.1919  13.2187  13.3259  13.3816  13.4793
    13.7898  13.9402  13.9847  14.1842  14.3142  14.4549  14.5136  14.7472
    14.7768  14.8267  14.8870  14.9027  15.0223  15.1471  15.1670  15.3469
    15.4035  15.4628  15.5340  15.6097  15.6699  15.7554  15.7851  15.8428
    15.9141  15.9811  16.0247  16.0444  16.1019  16.2111  16.3571  16.4510
    16.5076  16.5729  16.7056  16.8458  16.8999  16.9899  17.1438  17.2047
    17.2533  17.2952  17.3972  17.6176  17.6988  17.7352  17.8593  17.8942
    17.9543  17.9894  18.0626  18.1017  18.1435  18.2359  18.2389  18.2754
    18.2819  18.3119  18.3538  18.3832  18.4551  18.4730  18.5036  18.5197
    18.5527  18.5834  18.9896  19.0098  19.0563  19.4150  19.5215  19.7081
    19.8501

          k = 0.2500-0.2500 0.2500 (  6493 PWs)   bands (ev):

   -86.7301 -68.9281 -68.9178 -68.9161 -68.8833 -68.8715 -68.8618 -68.8538
   -68.8480 -68.8439 -68.8403 -68.8324 -68.8237 -68.8168 -68.8038 -46.9351
   -46.9346 -46.8611 -35.1667 -35.1609 -35.1583 -35.1319 -35.1249 -35.1220
   -35.1147 -35.1028 -35.0739 -35.0614 -35.0589 -35.0505 -35.0429 -35.0380
   -35.0221 -35.0202 -35.0088 -34.9941 -34.9886 -34.9771 -34.9742 -34.9348
   -34.9334 -34.9220 -34.9213 -34.9192 -34.9072 -34.9039 -34.8965 -34.8880
   -34.8782 -34.8666 -34.8569 -34.8558 -34.8382 -34.8239 -34.8231 -34.8195
   -34.8133 -34.8022 -34.8010 -34.7959   9.1236  11.1165  11.2203  11.5203
    12.5733  12.6092  12.8476  13.4833  13.5436  13.5863  13.6349  13.6562
    13.9142  13.9830  14.0885  14.1671  14.2805  14.3720  14.4974  14.6596
    14.7890  14.8273  14.8916  14.9209  14.9807  15.0585  15.1695  15.2902
    15.3108  15.3893  15.4003  15.4841  15.5440  15.6422  15.6590  15.6805
    15.7576  15.7733  15.8304  15.8671  15.9853  16.0555  16.1751  16.3003
    16.5299  16.5694  16.7100  16.8725  16.9104  17.0972  17.1400  17.3718
    17.3830  17.4329  17.4623  17.6192  17.6858  17.7576  17.8513  17.9320
    17.9372  17.9747  18.0296  18.1056  18.1186  18.2276  18.2631  18.2660
    18.2841  18.3321  18.3341  18.3749  18.4440  18.4739  18.4928  18.5301
    18.5340  18.5938  18.6292  18.9650  18.9669  19.0278  20.2020  20.2555
    20.4217

          k = 0.2500-0.2500-0.5000 (  6456 PWs)   bands (ev):

   -86.7301 -68.9241 -68.9207 -68.9160 -68.8838 -68.8715 -68.8648 -68.8541
   -68.8488 -68.8433 -68.8397 -68.8327 -68.8198 -68.8145 -68.8074 -46.9259
   -46.9255 -46.8535 -35.1501 -35.1426 -35.1412 -35.1362 -35.1256 -35.1176
   -35.1030 -35.0902 -35.0840 -35.0767 -35.0693 -35.0585 -35.0537 -35.0411
   -35.0249 -35.0129 -35.0079 -34.9959 -34.9907 -34.9860 -34.9798 -34.9437
   -34.9357 -34.9249 -34.9176 -34.9003 -34.8988 -34.8884 -34.8863 -34.8784
   -34.8724 -34.8633 -34.8554 -34.8518 -34.8396 -34.8295 -34.8234 -34.8177
   -34.8138 -34.8095 -34.8007 -34.7965   9.8563  10.1162  11.7163  11.8723
    11.9079  12.2693  13.1915  13.5048  13.6667  13.7933  13.8402  13.8723
    13.9202  13.9703  14.1535  14.1814  14.2924  14.3884  14.5174  14.5901
    14.7502  14.8521  14.9061  14.9492  14.9710  15.0276  15.1055  15.1426
    15.1906  15.2480  15.3667  15.4034  15.4632  15.4769  15.5474  15.5807
    15.6004  15.6769  15.7150  15.7470  15.8077  15.8844  15.9698  16.3528
    16.4451  16.5998  16.6893  16.8327  16.9854  17.0302  17.3220  17.3411
    17.4243  17.5253  17.5814  17.6610  17.7329  17.7882  17.8267  17.8905
    17.9669  18.0083  18.0703  18.1050  18.1772  18.1960  18.2524  18.2835
    18.3244  18.3439  18.3513  18.3828  18.3952  18.4422  18.4729  18.5258
    18.5390  18.5779  18.6085  18.6227  18.6530  19.8022  19.9635  20.7391
    20.8433

     the Fermi energy is    16.2434 ev

!    total energy              =   -3807.99322459 Ry
     estimated scf accuracy    <          4.2E-09 Ry
     smearing contrib. (-TS)   =       0.01578698 Ry
     internal energy E=F+TS    =   -3808.00901157 Ry

     The total energy is F=E-TS. E is the sum of the following terms:
     one-electron contribution =   -1954.10875538 Ry
     hartree contribution      =    1103.21464127 Ry
     xc contribution           =    -422.84142876 Ry
     ewald contribution        =   -2534.27346870 Ry

     total magnetization       =    36.62 Bohr mag/cell
     absolute magnetization    =    39.10 Bohr mag/cell

     convergence has been achieved in  26 iterations

     negative rho (up, down):  0.000E+00 1.899E-03

     Forces acting on atoms (cartesian axes, Ry/au):

     atom    1 type  2   force =    -0.00164266   -0.00164266   -0.00164266
     atom    2 type  1   force =    -0.00002346    0.00151767    0.00151767
     atom    3 type  1   force =     0.00151767   -0.00002346    0.00151767
     atom    4 type  1   force =     0.00119279    0.00119279   -0.00096357
     atom    5 type  1   force =     0.00151767    0.00151767   -0.00002346
     atom    6 type  1   force =     0.00119279   -0.00096357    0.00119279
     atom    7 type  1   force =    -0.00096357    0.00119279    0.00119279
     atom    8 type  1   force =     0.00011345    0.00011345    0.00011345
     atom    9 type  1   force =    -0.00069649   -0.00033020   -0.00033020
     atom   10 type  1   force =    -0.00033020   -0.00069649   -0.00033020
     atom   11 type  1   force =    -0.00024422   -0.00024422    0.00033151
     atom   12 type  1   force =    -0.00033020   -0.00033020   -0.00069649
     atom   13 type  1   force =    -0.00024422    0.00033151   -0.00024422
     atom   14 type  1   force =     0.00033151   -0.00024422   -0.00024422
     atom   15 type  1   force =    -0.00139086   -0.00139086   -0.00139086

     Total force =     0.006471     Total SCF correction =     0.000449
     Energy error            =      4.6E-04 Ry
     Gradient error          =      1.6E-03 Ry/Bohr

     number of scf cycles    =   6
     number of bfgs steps    =   5

     energy             old  =   -3807.9927655201 Ry
     energy             new  =   -3807.9932245921 Ry

     CASE: energy            _new < energy            _old

     new trust radius        =       0.0028047076 bohr
     new conv_thr            =       0.0000000164 Ry


ATOMIC_POSITIONS (crystal)
Ni               0.0039507327        0.0039507327        0.0039507327
Fe               0.4906585880        0.0082641951        0.0082641951
Fe               0.0082641951        0.4906585880        0.0082641951
Fe               0.4944486922        0.4944486922        0.0083165858
Fe               0.0082641951        0.0082641951        0.4906585880
Fe               0.4944486922        0.0083165858        0.4944486922
Fe               0.0083165858        0.4944486922        0.4944486922
Fe               0.4888091272        0.4888091272        0.4888091272
Fe               0.7544747270        0.2484486587        0.2484486587
Fe               0.2484486587        0.7544747270        0.2484486587
Fe               0.7482215904        0.7482215904        0.2514897376
Fe               0.2484486587        0.2484486587        0.7544747270
Fe               0.7482215904        0.2514897376        0.7482215904
Fe               0.2514897376        0.7482215904        0.7482215904
Fe               0.7535342289        0.7535342289        0.7535342289



     Writing config-only to output data dir ./outdir/fe15_ni1_end.save/ :
     XML data file
     NEW-OLD atomic charge density approx. for the potential

     Check: negative core charge=   -0.000004

     negative rho (up, down):  0.000E+00 1.956E-03
     Generating pointlists ...

     total cpu time spent up to now is     3693.4 secs

     per-process dynamical memory:   178.6 Mb

     Self-consistent Calculation

     iteration #  1     ecut=    45.00 Ry     beta= 0.10
     Davidson diagonalization with overlap
     ethr =  1.00E-06,  avg # of iterations =  5.7

     negative rho (up, down):  0.000E+00 1.957E-03

     total cpu time spent up to now is     3730.7 secs

     total energy              =   -3807.99331091 Ry
     estimated scf accuracy    <       0.00061876 Ry

     total magnetization       =    36.62 Bohr mag/cell
     absolute magnetization    =    39.10 Bohr mag/cell

     iteration #  2     ecut=    45.00 Ry     beta= 0.10
     Davidson diagonalization with overlap
     ethr =  2.56E-07,  avg # of iterations =  2.1

     negative rho (up, down):  0.000E+00 1.957E-03

     total cpu time spent up to now is     3753.5 secs

     total energy              =   -3807.99303529 Ry
     estimated scf accuracy    <       0.01045036 Ry

     total magnetization       =    36.62 Bohr mag/cell
     absolute magnetization    =    39.11 Bohr mag/cell

     iteration #  3     ecut=    45.00 Ry     beta= 0.10
     Davidson diagonalization with overlap
     ethr =  2.56E-07,  avg # of iterations =  2.1

     negative rho (up, down):  0.000E+00 1.956E-03

     total cpu time spent up to now is     3776.6 secs

     total energy              =   -3807.99318986 Ry
     estimated scf accuracy    <       0.00007128 Ry

     total magnetization       =    36.62 Bohr mag/cell
     absolute magnetization    =    39.10 Bohr mag/cell

     iteration #  4     ecut=    45.00 Ry     beta= 0.10
     Davidson diagonalization with overlap
     ethr =  2.95E-08,  avg # of iterations =  1.8

     negative rho (up, down):  0.000E+00 1.955E-03

     total cpu time spent up to now is     3797.6 secs

     total energy              =   -3807.99320661 Ry
     estimated scf accuracy    <       0.00000583 Ry

     total magnetization       =    36.62 Bohr mag/cell
     absolute magnetization    =    39.10 Bohr mag/cell

     iteration #  5     ecut=    45.00 Ry     beta= 0.10
     Davidson diagonalization with overlap
     ethr =  2.41E-09,  avg # of iterations =  2.2

     negative rho (up, down):  0.000E+00 1.954E-03

     total cpu time spent up to now is     3819.7 secs

     total energy              =   -3807.99321407 Ry
     estimated scf accuracy    <       0.00000595 Ry

     total magnetization       =    36.62 Bohr mag/cell
     absolute magnetization    =    39.10 Bohr mag/cell

     iteration #  6     ecut=    45.00 Ry     beta= 0.10
     Davidson diagonalization with overlap
     ethr =  2.41E-09,  avg # of iterations =  2.0

     negative rho (up, down):  0.000E+00 1.952E-03

     total cpu time spent up to now is     3842.5 secs

     total energy              =   -3807.99322794 Ry
     estimated scf accuracy    <       0.00002232 Ry

     total magnetization       =    36.62 Bohr mag/cell
     absolute magnetization    =    39.10 Bohr mag/cell

     iteration #  7     ecut=    45.00 Ry     beta= 0.10
     Davidson diagonalization with overlap
     ethr =  2.41E-09,  avg # of iterations =  2.0

     negative rho (up, down):  0.000E+00 1.953E-03

     total cpu time spent up to now is     3865.0 secs

     total energy              =   -3807.99323393 Ry
     estimated scf accuracy    <       0.00000361 Ry

     total magnetization       =    36.62 Bohr mag/cell
     absolute magnetization    =    39.10 Bohr mag/cell

     iteration #  8     ecut=    45.00 Ry     beta= 0.10
     Davidson diagonalization with overlap
     ethr =  1.49E-09,  avg # of iterations =  1.3

     negative rho (up, down):  0.000E+00 1.953E-03

     total cpu time spent up to now is     3884.5 secs

     total energy              =   -3807.99323917 Ry
     estimated scf accuracy    <       0.00000087 Ry

     total magnetization       =    36.62 Bohr mag/cell
     absolute magnetization    =    39.10 Bohr mag/cell

     iteration #  9     ecut=    45.00 Ry     beta= 0.10
     Davidson diagonalization with overlap
     ethr =  3.61E-10,  avg # of iterations =  1.8

     negative rho (up, down):  0.000E+00 1.954E-03

     total cpu time spent up to now is     3904.8 secs

     total energy              =   -3807.99324387 Ry
     estimated scf accuracy    <       0.00000009 Ry

     total magnetization       =    36.62 Bohr mag/cell
     absolute magnetization    =    39.10 Bohr mag/cell

     iteration # 10     ecut=    45.00 Ry     beta= 0.10
     Davidson diagonalization with overlap
     ethr =  3.64E-11,  avg # of iterations =  3.2

     negative rho (up, down):  0.000E+00 1.954E-03

     total cpu time spent up to now is     3928.4 secs

     total energy              =   -3807.99324814 Ry
     estimated scf accuracy    <       0.00000018 Ry

     total magnetization       =    36.62 Bohr mag/cell
     absolute magnetization    =    39.10 Bohr mag/cell

     iteration # 11     ecut=    45.00 Ry     beta= 0.10
     Davidson diagonalization with overlap
     ethr =  3.64E-11,  avg # of iterations =  1.9

     negative rho (up, down):  0.000E+00 1.955E-03

     total cpu time spent up to now is     3950.3 secs

     total energy              =   -3807.99325172 Ry
     estimated scf accuracy    <       0.00000046 Ry

     total magnetization       =    36.62 Bohr mag/cell
     absolute magnetization    =    39.10 Bohr mag/cell

     iteration # 12     ecut=    45.00 Ry     beta= 0.10
     Davidson diagonalization with overlap
     ethr =  3.64E-11,  avg # of iterations =  2.0

     negative rho (up, down):  0.000E+00 1.956E-03

     Magnetic moment per site  (integrated on atomic sphere of radius R)
     atom   1 (R=0.176)  charge= 16.5664  magn=  0.9591
     atom   2 (R=0.176)  charge= 14.2979  magn=  2.6073
     atom   3 (R=0.176)  charge= 14.2979  magn=  2.6073
     atom   4 (R=0.176)  charge= 14.2907  magn=  2.6565
     atom   5 (R=0.176)  charge= 14.2979  magn=  2.6073
     atom   6 (R=0.176)  charge= 14.2907  magn=  2.6565
     atom   7 (R=0.176)  charge= 14.2907  magn=  2.6565
     atom   8 (R=0.176)  charge= 14.2810  magn=  2.6957
     atom   9 (R=0.176)  charge= 14.3637  magn=  2.4429
     atom  10 (R=0.176)  charge= 14.3637  magn=  2.4429
     atom  11 (R=0.176)  charge= 14.2961  magn=  2.6591
     atom  12 (R=0.176)  charge= 14.3637  magn=  2.4429
     atom  13 (R=0.176)  charge= 14.2961  magn=  2.6591
     atom  14 (R=0.176)  charge= 14.2961  magn=  2.6591
     atom  15 (R=0.176)  charge= 14.2485  magn=  2.7904

     total cpu time spent up to now is     3972.6 secs

     End of self-consistent calculation

 ------ SPIN UP ------------


          k = 0.0000 0.0000 0.0000 (  6451 PWs)   bands (ev):

   -88.0685 -72.3791 -72.2597 -72.2489 -72.2489 -72.2007 -72.1850 -72.1850
   -72.1805 -72.1023 -72.1015 -72.1015 -71.9100 -71.9100 -71.9042 -48.2724
   -48.2724 -48.1606 -38.4798 -38.3969 -38.3969 -38.3417 -38.3392 -38.3392
   -38.3238 -38.2891 -38.2891 -38.2800 -38.2722 -38.2578 -38.2556 -38.2556
   -38.2240 -38.2240 -38.1932 -38.1708 -38.1708 -38.1546 -38.1546 -38.1259
   -38.1259 -38.1089 -38.1049 -38.0955 -38.0955 -38.0649 -38.0593 -38.0593
   -38.0530 -38.0530 -38.0477 -37.9750 -37.9214 -37.9214 -37.8652 -37.8652
   -37.8082 -37.8048 -37.8048 -37.8044   8.0823  11.4050  11.4199  11.4199
    11.4594  11.5124  11.5124  11.5492  11.5492  11.6726  11.7494  11.7494
    12.0834  12.0834  12.4142  12.7211  12.7298  12.7298  12.8148  12.8148
    12.8344  12.9549  12.9549  12.9902  13.1668  13.1668  13.2208  13.2392
    13.4343  13.4343  13.4742  13.6046  13.6046  13.7961  13.8083  13.8083
    14.0441  14.0441  14.0657  14.1412  14.1434  14.1434  14.1771  14.1771
    14.2410  14.5493  14.5665  14.5665  14.7382  14.8296  14.8296  14.8498
    14.8498  14.9403  15.0094  15.0155  15.0155  15.0801  15.0801  15.1340
    15.1340  15.1975  15.1975  15.2064  15.2064  15.2234  15.2442  15.4576
    15.5805  15.5805  15.9955  15.9955  16.0438  16.0438  16.1330  16.1330
    16.1563  16.1783  16.2983  16.2983  16.3499  16.5646  16.6092  16.6092
    16.6634

          k = 0.0000 0.0000 0.2500 (  6495 PWs)   bands (ev):

   -88.0686 -72.3791 -72.2586 -72.2503 -72.2490 -72.2009 -72.1851 -72.1846
   -72.1808 -72.1026 -72.1017 -72.1012 -71.9101 -71.9093 -71.9048 -48.2855
   -48.2811 -48.1714 -38.4811 -38.3975 -38.3956 -38.3472 -38.3405 -38.3390
   -38.3226 -38.2949 -38.2877 -38.2814 -38.2731 -38.2632 -38.2552 -38.2463
   -38.2286 -38.2265 -38.1969 -38.1842 -38.1830 -38.1677 -38.1462 -38.1438
   -38.1279 -38.1187 -38.1054 -38.0969 -38.0900 -38.0615 -38.0575 -38.0529
   -38.0496 -38.0387 -38.0381 -37.9712 -37.9318 -37.9273 -37.8624 -37.8601
   -37.8186 -37.8162 -37.8134 -37.8112   8.3823  10.5368  11.5059  11.5094
    11.5366  11.5808  11.6006  11.6306  11.6963  11.7780  11.8270  11.8689
    12.1377  12.1775  12.4383  12.6396  12.6767  12.6849  12.7439  12.7687
    12.8652  12.8847  12.9308  13.1060  13.1069  13.1503  13.2048  13.2521
    13.3328  13.5735  13.5776  13.6041  13.7288  13.7405  13.7631  13.7861
    13.8168  13.8516  13.9054  14.0842  14.0917  14.2795  14.3097  14.3566
    14.3819  14.4657  14.5358  14.5783  14.6054  14.6147  14.6462  14.7193
    14.7851  14.8606  14.9290  14.9551  15.0233  15.0266  15.0789  15.1027
    15.1090  15.1334  15.1561  15.1573  15.1824  15.1885  15.2304  15.2931
    15.3170  15.4699  15.5238  15.5309  15.5997  15.8999  16.0514  16.0790
    16.1040  16.1640  16.2801  16.2813  16.4388  16.6396  16.7876  16.8632
    17.0134

          k = 0.0000 0.0000-0.5000 (  6480 PWs)   bands (ev):

   -88.0686 -72.3791 -72.2568 -72.2521 -72.2490 -72.2010 -72.1851 -72.1840
   -72.1813 -72.1029 -72.1017 -72.1010 -71.9101 -71.9080 -71.9060 -48.2855
   -48.2764 -48.1686 -38.4788 -38.3923 -38.3864 -38.3499 -38.3353 -38.3336
   -38.3011 -38.2994 -38.2975 -38.2896 -38.2735 -38.2601 -38.2537 -38.2403
   -38.2350 -38.2315 -38.2017 -38.1898 -38.1889 -38.1870 -38.1522 -38.1437
   -38.1389 -38.1185 -38.1001 -38.0979 -38.0861 -38.0613 -38.0535 -38.0484
   -38.0479 -38.0271 -38.0241 -37.9639 -37.9389 -37.9275 -37.8557 -37.8481
   -37.8273 -37.8261 -37.8150 -37.8116   9.1386   9.4044  11.6287  11.6427
    11.6441  11.7105  11.7687  11.7946  11.8420  11.8788  11.9440  12.0662
    12.0725  12.2023  12.3231  12.3558  12.3950  12.6171  12.6326  12.6437
    12.9700  12.9724  13.2214  13.2289  13.2845  13.2868  13.2880  13.4211
    13.4470  13.4818  13.5651  13.5990  13.6132  13.6334  13.6574  13.7253
    13.7497  13.7816  13.8038  13.9410  13.9548  14.1283  14.1814  14.2033
    14.2502  14.3050  14.3841  14.4686  14.5103  14.5389  14.6174  14.6488
    14.6978  14.7622  14.7795  14.9193  15.0130  15.0543  15.0694  15.0814
    15.0941  15.1011  15.1567  15.1751  15.1814  15.2045  15.2107  15.2583
    15.4041  15.5169  15.6420  15.6616  15.6768  15.7415  15.7637  15.8198
    15.9093  16.2444  16.4345  16.4604  16.5429  16.6035  16.6617  16.7229
    16.7410

          k = 0.0000 0.2500 0.2500 (  6500 PWs)   bands (ev):

   -88.0686 -72.3791 -72.2573 -72.2510 -72.2496 -72.2010 -72.1850 -72.1841
   -72.1814 -72.1026 -72.1018 -72.1012 -71.9097 -71.9090 -71.9056 -48.2862
   -48.2804 -48.1750 -38.4803 -38.3937 -38.3905 -38.3490 -38.3367 -38.3354
   -38.3171 -38.3006 -38.2875 -38.2865 -38.2801 -38.2603 -38.2584 -38.2394
   -38.2376 -38.2257 -38.1931 -38.1921 -38.1821 -38.1637 -38.1494 -38.1429
   -38.1349 -38.1262 -38.1126 -38.1039 -38.0869 -38.0614 -38.0602 -38.0476
   -38.0440 -38.0402 -38.0362 -37.9637 -37.9329 -37.9297 -37.8557 -37.8503
   -37.8275 -37.8166 -37.8162 -37.8119   8.6818  10.6518  10.8045  11.4212
    11.6905  11.6913  11.7139  11.7383  11.8167  11.9186  11.9576  12.0051
    12.2451  12.2492  12.4924  12.5556  12.6071  12.6985  12.7867  12.8182
    12.8648  12.9176  12.9674  12.9683  13.0223  13.0365  13.2180  13.2795
    13.4004  13.4092  13.5110  13.5825  13.5912  13.6820  13.7075  13.8000
    13.8081  13.9059  13.9276  14.0461  14.1111  14.2205  14.2447  14.2974
    14.3243  14.3408  14.4114  14.4344  14.5258  14.5652  14.6343  14.6368
    14.6842  14.7395  14.7887  14.8163  14.9007  14.9641  15.0137  15.0368
    15.0713  15.0805  15.1105  15.1744  15.1951  15.2157  15.2684  15.3498
    15.3523  15.3968  15.4017  15.4820  15.5161  15.5225  15.5727  15.7237
    15.8028  15.8079  16.0770  16.5277  16.5536  17.6041  17.6538  17.8368
    17.9890

          k = 0.0000 0.2500-0.5000 (  6452 PWs)   bands (ev):

   -88.0685 -72.3790 -72.2558 -72.2522 -72.2498 -72.2011 -72.1848 -72.1837
   -72.1816 -72.1029 -72.1018 -72.1008 -71.9095 -71.9080 -71.9065 -48.2763
   -48.2701 -48.1611 -38.4763 -38.3872 -38.3825 -38.3501 -38.3333 -38.3324
   -38.3077 -38.2993 -38.2944 -38.2879 -38.2779 -38.2619 -38.2533 -38.2440
   -38.2366 -38.2248 -38.1920 -38.1848 -38.1824 -38.1672 -38.1498 -38.1450
   -38.1300 -38.1209 -38.1047 -38.0979 -38.0842 -38.0663 -38.0596 -38.0525
   -38.0464 -38.0344 -38.0319 -37.9539 -37.9368 -37.9287 -37.8478 -37.8400
   -37.8276 -37.8226 -37.8143 -37.8101   9.4111   9.6573  11.0633  11.2432
    11.8420  11.8751  11.9671  11.9993  12.0236  12.0318  12.0700  12.1609
    12.1848  12.2892  12.3480  12.4254  12.4644  12.6457  12.7396  12.7503
    12.9675  12.9935  13.0645  13.0958  13.1271  13.1345  13.2005  13.2877
    13.3559  13.4059  13.5321  13.5495  13.5730  13.6056  13.6446  13.6625
    13.6874  13.7724  13.7899  13.8475  13.9139  13.9565  14.0082  14.1028
    14.1544  14.3244  14.4436  14.4612  14.4745  14.5154  14.6367  14.6606
    14.6956  14.7200  14.7525  14.7685  14.8092  14.8678  14.9111  15.0010
    15.0429  15.0595  15.1147  15.1542  15.1649  15.2040  15.2266  15.2342
    15.2975  15.3571  15.3756  15.3994  15.4695  15.4771  15.5222  15.6454
    15.7638  15.9550  16.0968  17.0268  17.0649  17.1480  17.2245  18.7254
    18.8143

          k = 0.0000-0.5000-0.5000 (  6496 PWs)   bands (ev):

   -88.0686 -72.3790 -72.2542 -72.2529 -72.2508 -72.2013 -72.1848 -72.1831
   -72.1824 -72.1029 -72.1020 -72.1008 -71.9084 -71.9081 -71.9077 -48.2877
   -48.2798 -48.1715 -38.4758 -38.3853 -38.3769 -38.3544 -38.3325 -38.3319
   -38.3186 -38.2983 -38.2966 -38.2905 -38.2874 -38.2692 -38.2548 -38.2452
   -38.2386 -38.2252 -38.1862 -38.1851 -38.1773 -38.1506 -38.1476 -38.1443
   -38.1372 -38.1117 -38.1074 -38.1009 -38.0969 -38.0848 -38.0718 -38.0611
   -38.0532 -38.0412 -38.0391 -37.9459 -37.9398 -37.9335 -37.8421 -37.8332
   -37.8322 -37.8213 -37.8208 -37.8101  10.0883  10.1586  10.2113  10.6496
    12.0550  12.0763  12.1098  12.1493  12.2217  12.2401  12.2445  12.3049
    12.3567  12.3804  12.5326  12.5794  12.6354  12.6359  12.6671  12.6811
    12.8262  12.8779  12.8799  12.8974  12.9531  12.9895  13.0162  13.2436
    13.3343  13.3771  13.4321  13.4501  13.5225  13.5262  13.5320  13.5591
    13.6040  13.6878  13.7147  13.7258  13.7715  13.7741  13.8725  14.0663
    14.1248  14.3000  14.3167  14.4175  14.4887  14.5791  14.5938  14.6368
    14.6848  14.6974  14.7321  14.7425  14.7922  14.8105  14.8346  14.9157
    14.9201  14.9610  15.0064  15.0398  15.0545  15.0953  15.1316  15.1828
    15.1901  15.2074  15.2340  15.3103  15.3824  15.4196  15.4453  15.6659
    15.7786  16.0467  16.2041  17.8327  17.8843  17.9711  18.0611  18.1352
    18.2849

          k = 0.2500 0.2500 0.2500 (  6493 PWs)   bands (ev):

   -88.0686 -72.3790 -72.2560 -72.2509 -72.2509 -72.2012 -72.1841 -72.1841
   -72.1821 -72.1020 -72.1018 -72.1018 -71.9089 -71.9089 -71.9064 -48.2831
   -48.2831 -48.1708 -38.4782 -38.3868 -38.3868 -38.3502 -38.3321 -38.3321
   -38.3095 -38.3024 -38.2895 -38.2895 -38.2859 -38.2570 -38.2570 -38.2392
   -38.2392 -38.2350 -38.1910 -38.1910 -38.1829 -38.1580 -38.1580 -38.1391
   -38.1391 -38.1293 -38.1159 -38.0893 -38.0893 -38.0658 -38.0658 -38.0595
   -38.0392 -38.0363 -38.0363 -37.9579 -37.9333 -37.9333 -37.8456 -37.8456
   -37.8335 -37.8154 -37.8154 -37.8152   8.9738  10.8711  10.8711  11.0721
    11.6212  11.6212  11.6904  11.9045  11.9045  12.0192  12.1421  12.1421
    12.4037  12.4037  12.5319  12.5565  12.6043  12.7164  12.7164  12.8370
    12.8370  12.9184  12.9614  13.0143  13.0143  13.1182  13.1182  13.2930
    13.3565  13.3592  13.3592  13.4263  13.4263  13.5990  13.5990  13.7226
    13.7226  13.7372  13.8037  13.9077  13.9077  13.9771  14.1504  14.1504
    14.2402  14.2402  14.3478  14.5471  14.5471  14.5552  14.6057  14.6924
    14.6924  14.7705  14.8205  14.8425  14.8425  14.9086  14.9788  14.9788
    15.0524  15.0586  15.0586  15.1661  15.1661  15.2039  15.2056  15.2056
    15.2251  15.3207  15.3207  15.5313  15.5313  15.6104  15.6903  15.6903
    15.7337  15.7337  15.8637  16.5743  16.5743  16.6444  18.5279  18.5279
    18.7196

          k = 0.2500 0.2500-0.5000 (  6456 PWs)   bands (ev):

   -88.0685 -72.3789 -72.2549 -72.2520 -72.2508 -72.2013 -72.1841 -72.1839
   -72.1821 -72.1026 -72.1018 -72.1012 -71.9088 -71.9081 -71.9071 -48.2777
   -48.2720 -48.1609 -38.4748 -38.3828 -38.3792 -38.3501 -38.3316 -38.3302
   -38.3040 -38.2986 -38.2955 -38.2920 -38.2807 -38.2589 -38.2576 -38.2409
   -38.2361 -38.2288 -38.1883 -38.1872 -38.1781 -38.1598 -38.1519 -38.1484
   -38.1288 -38.1257 -38.1085 -38.1022 -38.0991 -38.0667 -38.0577 -38.0566
   -38.0398 -38.0378 -38.0277 -37.9513 -37.9384 -37.9322 -37.8467 -37.8375
   -37.8313 -37.8213 -37.8134 -37.8117   9.6860   9.9148  11.2931  11.3115
    11.3779  11.5776  12.1370  12.1549  12.1894  12.1977  12.2028  12.2251
    12.3064  12.3556  12.4061  12.5250  12.5581  12.6730  12.7545  12.8553
    12.9601  12.9914  13.0044  13.0427  13.0439  13.1072  13.1571  13.1868
    13.2375  13.2854  13.3753  13.4375  13.4503  13.4717  13.5064  13.5320
    13.5565  13.5758  13.5793  13.6260  13.7027  13.7728  13.8037  13.9517
    14.0807  14.2084  14.3450  14.3973  14.5646  14.6078  14.6316  14.6970
    14.7260  14.7350  14.7709  14.8193  14.8414  14.9244  14.9711  15.0310
    15.0457  15.0759  15.1199  15.1267  15.1668  15.1948  15.1984  15.2445
    15.2524  15.3302  15.3782  15.4170  15.4664  15.7073  15.7085  15.7671
    15.8208  15.8425  15.9081  15.9959  16.0517  17.7074  17.8984  19.2302
    19.2483

          k = 0.2500-0.5000-0.5000 (  6472 PWs)   bands (ev):

   -88.0686 -72.3789 -72.2537 -72.2528 -72.2512 -72.2014 -72.1843 -72.1831
   -72.1826 -72.1026 -72.1020 -72.1011 -71.9085 -71.9078 -71.9077 -48.2781
   -48.2774 -48.1659 -38.4735 -38.3776 -38.3731 -38.3515 -38.3305 -38.3297
   -38.3105 -38.2961 -38.2919 -38.2880 -38.2831 -38.2634 -38.2566 -38.2408
   -38.2376 -38.2288 -38.1854 -38.1834 -38.1715 -38.1541 -38.1540 -38.1427
   -38.1415 -38.1288 -38.1257 -38.1190 -38.1121 -38.0604 -38.0547 -38.0489
   -38.0419 -38.0322 -38.0298 -37.9480 -37.9427 -37.9374 -37.8449 -37.8370
   -37.8358 -37.8207 -37.8166 -37.8136  10.3529  10.4315  10.4752  10.8633
    11.8010  11.9219  11.9282  12.1658  12.2473  12.2711  12.3416  12.5568
    12.5583  12.6079  12.6232  12.6710  12.6775  12.7043  12.7080  12.7778
    12.8090  12.8686  12.8687  12.9047  12.9435  12.9703  13.0130  13.1091
    13.1418  13.1909  13.1961  13.3003  13.3101  13.3245  13.3591  13.3707
    13.4150  13.4353  13.4536  13.5426  13.5671  13.5816  13.6393  13.6731
    13.7705  14.2137  14.2156  14.2796  14.6921  14.6926  14.7277  14.8010
    14.8114  14.8511  14.8778  14.8832  14.9501  14.9548  14.9972  15.0328
    15.0575  15.1154  15.1310  15.1339  15.1772  15.2001  15.2063  15.2150
    15.2451  15.2530  15.3020  15.3549  15.3893  15.4210  15.4858  15.6110
    15.6553  15.8183  15.9428  16.6967  16.7393  16.7517  16.8733  20.1743
    20.3109

          k =-0.5000-0.5000-0.5000 (  6488 PWs)   bands (ev):

   -88.0685 -72.3789 -72.2527 -72.2527 -72.2522 -72.2015 -72.1836 -72.1832
   -72.1832 -72.1020 -72.1020 -72.1017 -71.9086 -71.9076 -71.9076 -48.2798
   -48.2798 -48.1680 -38.4716 -38.3682 -38.3682 -38.3514 -38.3270 -38.3270
   -38.3114 -38.2904 -38.2904 -38.2822 -38.2812 -38.2548 -38.2548 -38.2393
   -38.2385 -38.2385 -38.1904 -38.1904 -38.1608 -38.1559 -38.1559 -38.1510
   -38.1391 -38.1376 -38.1376 -38.1330 -38.1330 -38.0441 -38.0408 -38.0408
   -38.0389 -38.0273 -38.0273 -37.9474 -37.9474 -37.9454 -37.8466 -37.8385
   -37.8385 -37.8239 -37.8188 -37.8188  10.9663  11.1067  11.1067  11.1636
    11.1894  11.2060  11.2060  12.0632  12.6482  12.6482  12.6844  12.6844
    12.7119  12.7148  12.7218  12.7218  12.7282  12.7834  12.7834  12.8121
    12.8490  12.8490  12.9018  12.9018  12.9452  12.9452  12.9809  13.0381
    13.0381  13.0844  13.1111  13.1360  13.1375  13.1375  13.1607  13.1818
    13.1818  13.1965  13.1965  13.2038  13.2237  13.2580  13.2580  13.5687
    13.5687  14.1628  14.1795  14.1795  14.7547  14.7547  14.8669  14.8669
    14.8761  14.9338  14.9338  14.9755  14.9755  15.0116  15.0157  15.0809
    15.0809  15.1336  15.1433  15.1433  15.2299  15.3305  15.3305  15.3698
    15.3698  15.3824  15.4471  15.4471  15.5256  15.5894  15.5894  15.7079
    15.7079  15.7485  15.8264  16.0403  16.0403  16.0561  16.1338  22.3727
    22.3727

          k =-0.2500 0.0000 0.2500 (  6500 PWs)   bands (ev):

   -88.0686 -72.3791 -72.2576 -72.2505 -72.2498 -72.2011 -72.1849 -72.1845
   -72.1810 -72.1029 -72.1018 -72.1009 -71.9096 -71.9093 -71.9054 -48.2874
   -48.2839 -48.1702 -38.4789 -38.3923 -38.3919 -38.3500 -38.3391 -38.3377
   -38.3143 -38.2999 -38.2894 -38.2887 -38.2730 -38.2648 -38.2555 -38.2478
   -38.2345 -38.2294 -38.1995 -38.1871 -38.1843 -38.1550 -38.1517 -38.1421
   -38.1302 -38.1155 -38.1054 -38.1011 -38.0878 -38.0652 -38.0608 -38.0589
   -38.0480 -38.0390 -38.0379 -37.9648 -37.9337 -37.9299 -37.8598 -37.8514
   -37.8220 -37.8185 -37.8146 -37.8092   8.6822  10.6162  10.8452  11.4135
    11.6872  11.7012  11.7252  11.7663  11.7826  11.9295  11.9446  11.9979
    12.2277  12.2432  12.4971  12.5644  12.6018  12.7149  12.7744  12.8250
    12.8529  12.8987  12.9746  13.0035  13.0206  13.0271  13.2162  13.3047
    13.4115  13.4336  13.5126  13.5400  13.6332  13.6657  13.7111  13.7772
    13.8055  13.8910  13.9169  14.0373  14.1049  14.1936  14.2695  14.3394
    14.3663  14.3767  14.4255  14.4403  14.4629  14.5221  14.5846  14.6205
    14.6602  14.7762  14.8269  14.8544  14.9085  14.9420  15.0123  15.0462
    15.0752  15.1210  15.1454  15.1637  15.1699  15.2159  15.2610  15.3103
    15.3441  15.4046  15.4398  15.4592  15.5215  15.5364  15.6017  15.6278
    15.6985  15.7722  16.2226  16.5305  16.5630  17.5036  17.6664  17.8441
    18.0747

          k = 0.2500-0.2500 0.2500 (  6493 PWs)   bands (ev):

   -88.0686 -72.3790 -72.2567 -72.2509 -72.2502 -72.2012 -72.1849 -72.1841
   -72.1814 -72.1029 -72.1018 -72.1009 -71.9094 -71.9089 -71.9059 -48.2831
   -48.2827 -48.1712 -38.4774 -38.3877 -38.3859 -38.3507 -38.3357 -38.3344
   -38.3063 -38.3034 -38.2935 -38.2886 -38.2778 -38.2627 -38.2611 -38.2425
   -38.2400 -38.2261 -38.1937 -38.1880 -38.1779 -38.1575 -38.1566 -38.1382
   -38.1336 -38.1260 -38.1232 -38.0990 -38.0961 -38.0627 -38.0612 -38.0486
   -38.0405 -38.0381 -38.0371 -37.9609 -37.9333 -37.9333 -37.8562 -37.8432
   -37.8274 -37.8199 -37.8128 -37.8128   8.9747  10.8219  10.8712  11.1279
    11.5857  11.6091  11.7427  11.8920  11.9310  12.0426  12.1219  12.1316
    12.3850  12.3914  12.5323  12.5551  12.5790  12.7331  12.7407  12.8320
    12.8585  12.9005  12.9322  13.0267  13.0500  13.1111  13.1264  13.3177
    13.3240  13.3529  13.3815  13.4307  13.4533  13.5846  13.6005  13.7180
    13.7318  13.7527  13.7592  13.9004  13.9618  14.0092  14.1284  14.1650
    14.2080  14.2118  14.3743  14.4537  14.4607  14.5410  14.5554  14.6691
    14.7132  14.7391  14.8005  14.8808  14.9031  14.9357  14.9899  14.9972
    15.0424  15.0844  15.1076  15.1191  15.1497  15.1686  15.2059  15.2072
    15.3235  15.3394  15.3866  15.4708  15.5296  15.5718  15.6123  15.6932
    15.7436  15.8637  15.8673  16.5529  16.5543  16.6700  18.4700  18.5286
    18.7742

          k = 0.2500-0.2500-0.5000 (  6456 PWs)   bands (ev):

   -88.0685 -72.3789 -72.2552 -72.2523 -72.2501 -72.2013 -72.1848 -72.1834
   -72.1819 -72.1029 -72.1019 -72.1008 -71.9093 -71.9079 -71.9068 -48.2738
   -48.2733 -48.1635 -38.4751 -38.3827 -38.3788 -38.3514 -38.3332 -38.3304
   -38.3087 -38.3013 -38.2921 -38.2853 -38.2764 -38.2624 -38.2577 -38.2407
   -38.2374 -38.2268 -38.1853 -38.1838 -38.1718 -38.1647 -38.1516 -38.1416
   -38.1383 -38.1319 -38.1203 -38.1086 -38.0965 -38.0646 -38.0576 -38.0444
   -38.0393 -38.0350 -38.0246 -37.9537 -37.9386 -37.9325 -37.8468 -37.8391
   -37.8302 -37.8210 -37.8149 -37.8123   9.6854   9.9163  11.2511  11.3487
    11.3534  11.6174  12.1225  12.1462  12.1756  12.1961  12.2292  12.2460
    12.2941  12.3750  12.4003  12.5167  12.5572  12.6931  12.7395  12.8484
    12.9331  12.9796  13.0037  13.0364  13.0762  13.1152  13.1549  13.2061
    13.2675  13.3295  13.3677  13.4207  13.4387  13.4559  13.5083  13.5182
    13.5403  13.5481  13.5864  13.5937  13.7135  13.7844  13.8108  13.9645
    14.0666  14.2308  14.3330  14.3978  14.5343  14.5707  14.6423  14.6620
    14.7021  14.7471  14.7894  14.8055  14.8157  14.9517  14.9724  15.0322
    15.0458  15.0699  15.1251  15.1421  15.1622  15.1813  15.2053  15.2527
    15.2688  15.3482  15.3874  15.4577  15.4695  15.6267  15.7086  15.8120
    15.8644  15.8719  15.8874  16.0273  16.0484  17.6829  17.8700  19.1677
    19.2457

 ------ SPIN DOWN ----------


          k = 0.0000 0.0000 0.0000 (  6451 PWs)   bands (ev):

   -86.7301 -68.9359 -68.9147 -68.9147 -68.8826 -68.8680 -68.8528 -68.8528
   -68.8425 -68.8420 -68.8420 -68.8376 -68.8376 -68.8220 -68.7962 -46.9245
   -46.9245 -46.8508 -35.2019 -35.1889 -35.1889 -35.1570 -35.1388 -35.1388
   -35.0676 -35.0676 -35.0673 -35.0184 -35.0153 -35.0153 -35.0025 -35.0025
   -34.9973 -34.9972 -34.9972 -34.9834 -34.9684 -34.9684 -34.9623 -34.9587
   -34.9556 -34.9556 -34.9465 -34.9424 -34.9424 -34.9307 -34.9170 -34.9170
   -34.9007 -34.9007 -34.8837 -34.8468 -34.8215 -34.8215 -34.8094 -34.8094
   -34.7857 -34.7789 -34.7789 -34.7726   8.2169  12.1760  12.2444  12.2444
    12.3480  12.3480  12.5175  12.9096  12.9096  13.0139  13.0298  13.0298
    13.5845  13.7557  13.7557  14.3305  14.3305  14.4315  14.7097  14.7097
    14.7461  14.9165  14.9165  14.9854  15.2053  15.2053  15.3760  15.4655
    15.4655  15.6894  15.7326  15.9066  16.0645  16.0645  16.1486  16.1486
    16.3621  16.3621  16.4028  16.4770  16.4850  16.4850  16.5367  16.5367
    16.5664  16.7569  16.7569  16.8869  17.0137  17.0137  17.0836  17.2847
    17.2847  17.3437  17.3437  17.4199  17.5527  17.5527  17.6438  17.8871
    17.9927  17.9927  18.0410  18.1033  18.1033  18.2214  18.2214  18.3566
    18.3566  18.3981  18.4076  18.4131  18.4131  18.4348  18.5756  18.5756
    18.7781  18.7781  18.8229  18.8229  18.8825  18.8825  18.9170  18.9661
    19.0514

          k = 0.0000 0.0000 0.2500 (  6495 PWs)   bands (ev):

   -86.7301 -68.9329 -68.9171 -68.9147 -68.8828 -68.8702 -68.8557 -68.8526
   -68.8453 -68.8423 -68.8422 -68.8377 -68.8294 -68.8198 -68.7990 -46.9374
   -46.9331 -46.8612 -35.1938 -35.1822 -35.1802 -35.1470 -35.1358 -35.1352
   -35.0812 -35.0780 -35.0706 -35.0652 -35.0601 -35.0449 -35.0358 -35.0178
   -35.0127 -35.0035 -34.9812 -34.9761 -34.9732 -34.9647 -34.9576 -34.9515
   -34.9335 -34.9293 -34.9246 -34.9210 -34.9161 -34.9089 -34.9043 -34.8986
   -34.8956 -34.8858 -34.8793 -34.8539 -34.8344 -34.8309 -34.8215 -34.8187
   -34.8067 -34.7985 -34.7958 -34.7895   8.5210  10.7961  12.4046  12.4058
    12.5051  12.5717  12.9233  12.9555  12.9972  13.0005  13.2134  13.3283
    13.6815  13.8769  13.8812  14.2546  14.3403  14.3836  14.5344  14.7998
    14.8013  14.8599  14.9319  15.0180  15.0647  15.0849  15.3747  15.3769
    15.4517  15.4840  15.6354  15.8053  15.8896  15.9125  15.9885  16.0628
    16.0837  16.1232  16.1771  16.2374  16.2705  16.3380  16.3469  16.4921
    16.5117  16.6697  16.7818  16.8452  16.8765  16.9081  17.0854  17.1750
    17.2269  17.2979  17.3910  17.6583  17.7187  17.7376  17.8018  17.8697
    17.9320  17.9707  18.0534  18.0766  18.1519  18.1674  18.2704  18.3240
    18.3492  18.3759  18.4104  18.4884  18.5159  18.6276  18.6535  18.7038
    18.7044  18.7282  18.8343  18.8459  18.8638  18.9126  18.9509  18.9657
    18.9861

          k = 0.0000 0.0000-0.5000 (  6480 PWs)   bands (ev):

   -86.7301 -68.9277 -68.9217 -68.9146 -68.8830 -68.8727 -68.8573 -68.8522
   -68.8457 -68.8426 -68.8423 -68.8378 -68.8266 -68.8134 -68.8043 -46.9374
   -46.9287 -46.8583 -35.1465 -35.1455 -35.1415 -35.1386 -35.1366 -35.1213
   -35.1199 -35.1130 -35.1118 -35.0989 -35.0762 -35.0677 -35.0604 -35.0216
   -35.0150 -35.0040 -34.9899 -34.9875 -34.9799 -34.9673 -34.9608 -34.9462
   -34.9268 -34.9101 -34.9024 -34.8973 -34.8926 -34.8897 -34.8867 -34.8792
   -34.8738 -34.8737 -34.8572 -34.8506 -34.8451 -34.8373 -34.8286 -34.8238
   -34.8221 -34.8162 -34.8152 -34.8053   9.2875   9.5741  12.6237  12.6792
    12.7062  12.7541  12.8821  12.8936  12.9298  13.1443  13.5389  13.6331
    13.7644  13.9498  13.9963  14.0647  14.1210  14.3128  14.4528  14.5563
    14.8548  14.8604  14.9514  15.0774  15.1872  15.2787  15.3601  15.3887
    15.4287  15.4430  15.4483  15.5481  15.5781  15.5846  15.6449  15.8182
    15.8309  15.8629  15.9584  16.0060  16.0733  16.1514  16.1767  16.3282
    16.3429  16.6149  16.7576  17.0160  17.0797  17.2498  17.3331  17.3422
    17.4343  17.4642  17.5084  17.6238  17.6945  17.7650  17.7717  17.8216
    17.8959  17.9312  18.0818  18.2133  18.2466  18.3091  18.3276  18.3386
    18.3632  18.3955  18.4254  18.4523  18.4800  18.4993  18.5233  18.6062
    18.6068  18.7165  18.7816  18.8355  18.8414  18.9545  19.0129  19.0573
    19.0644

          k = 0.0000 0.2500 0.2500 (  6500 PWs)   bands (ev):

   -86.7301 -68.9299 -68.9183 -68.9156 -68.8832 -68.8695 -68.8606 -68.8534
   -68.8462 -68.8446 -68.8414 -68.8330 -68.8238 -68.8208 -68.8015 -46.9380
   -46.9324 -46.8648 -35.1860 -35.1669 -35.1570 -35.1344 -35.1261 -35.1253
   -35.1178 -35.1004 -35.0931 -35.0859 -35.0562 -35.0511 -35.0362 -35.0116
   -35.0036 -35.0018 -34.9947 -34.9773 -34.9764 -34.9708 -34.9676 -34.9581
   -34.9413 -34.9410 -34.9280 -34.9241 -34.9066 -34.8985 -34.8904 -34.8822
   -34.8793 -34.8657 -34.8583 -34.8570 -34.8400 -34.8304 -34.8304 -34.8235
   -34.8196 -34.8071 -34.7925 -34.7889   8.8240  10.9699  11.1022  12.4205
    12.6442  12.6767  13.0589  13.1798  13.2241  13.2547  13.4194  13.5250
    13.7988  13.9230  14.0473  14.2108  14.3249  14.3850  14.5490  14.7090
    14.7977  14.8119  14.8714  14.9494  15.0581  15.0609  15.1557  15.2766
    15.3622  15.4643  15.5362  15.6481  15.6933  15.7575  15.7917  15.8475
    15.9265  15.9544  16.0163  16.1160  16.1434  16.2012  16.2784  16.4166
    16.4950  16.6165  16.6981  16.8546  16.9682  17.0903  17.1339  17.1602
    17.2912  17.3177  17.4055  17.5248  17.5849  17.7390  17.8263  17.9305
    17.9939  18.0354  18.0503  18.1031  18.1322  18.2093  18.2276  18.2710
    18.2836  18.3618  18.3808  18.3910  18.4486  18.4541  18.4727  18.5536
    18.5579  18.6901  18.8407  18.9925  19.0418  19.5093  19.6337  19.7075
    19.7179

          k = 0.0000 0.2500-0.5000 (  6452 PWs)   bands (ev):

   -86.7301 -68.9256 -68.9211 -68.9160 -68.8834 -68.8713 -68.8609 -68.8556
   -68.8465 -68.8446 -68.8409 -68.8316 -68.8238 -68.8142 -68.8060 -46.9284
   -46.9223 -46.8511 -35.1567 -35.1488 -35.1416 -35.1363 -35.1336 -35.1291
   -35.1146 -35.1069 -35.0977 -35.0733 -35.0650 -35.0588 -35.0437 -35.0322
   -35.0146 -34.9947 -34.9929 -34.9817 -34.9762 -34.9732 -34.9690 -34.9517
   -34.9332 -34.9314 -34.9250 -34.9137 -34.9097 -34.8975 -34.8904 -34.8737
   -34.8722 -34.8661 -34.8523 -34.8475 -34.8325 -34.8304 -34.8245 -34.8201
   -34.8127 -34.8066 -34.8040 -34.7929   9.5718   9.8438  11.5497  11.8272
    12.8880  12.9434  13.1082  13.2024  13.5096  13.5801  13.6567  13.6878
    13.8493  13.9488  14.0306  14.0989  14.1933  14.3881  14.4566  14.6278
    14.7422  14.8326  14.9131  15.0087  15.0470  15.0791  15.1719  15.2224
    15.2672  15.3454  15.3878  15.4862  15.5084  15.6089  15.6304  15.6735
    15.7043  15.7695  15.8304  15.9184  16.0040  16.0714  16.1549  16.4150
    16.4752  16.5363  16.8607  16.9313  17.0252  17.1376  17.2182  17.3427
    17.4030  17.4264  17.4979  17.5325  17.5678  17.5961  17.7044  17.8154
    17.8874  17.9666  18.0193  18.0727  18.1253  18.2226  18.2585  18.2755
    18.3212  18.3462  18.3809  18.4006  18.4133  18.4351  18.4696  18.5343
    18.6389  18.7262  18.8553  19.2520  19.3237  19.3510  19.4051  20.1816
    20.4238

          k = 0.0000-0.5000-0.5000 (  6496 PWs)   bands (ev):

   -86.7301 -68.9218 -68.9211 -68.9186 -68.8840 -68.8684 -68.8648 -68.8601
   -68.8462 -68.8448 -68.8396 -68.8292 -68.8188 -68.8158 -68.8086 -46.9396
   -46.9317 -46.8613 -35.1617 -35.1451 -35.1426 -35.1424 -35.1403 -35.1318
   -35.1142 -35.1080 -35.0916 -35.0634 -35.0506 -35.0453 -35.0145 -35.0120
   -35.0075 -34.9999 -34.9970 -34.9920 -34.9889 -34.9858 -34.9781 -34.9668
   -34.9597 -34.9552 -34.9449 -34.9400 -34.9225 -34.9048 -34.8861 -34.8774
   -34.8696 -34.8691 -34.8557 -34.8435 -34.8337 -34.8274 -34.8233 -34.8187
   -34.8091 -34.7976 -34.7959 -34.7864  10.2935  10.4356  10.4451  10.9469
    13.3061  13.3124  13.3397  13.4852  13.5421  13.6290  13.6380  13.7659
    13.9768  13.9954  14.0402  14.0644  14.3977  14.4021  14.5253  14.5266
    14.6893  14.7190  14.7207  14.7836  14.8686  14.9821  15.0469  15.0487
    15.2596  15.2761  15.3502  15.3655  15.4071  15.4507  15.5082  15.5331
    15.6578  15.6976  15.7481  15.9080  16.0127  16.1000  16.1987  16.4365
    16.4696  16.6062  16.6337  16.9036  16.9239  16.9785  17.1394  17.2387
    17.2674  17.3778  17.4911  17.5800  17.6409  17.6958  17.7130  17.7812
    17.8295  17.8776  17.9471  17.9508  18.0575  18.1021  18.1544  18.2282
    18.2480  18.2828  18.2912  18.3159  18.3478  18.4188  18.4501  18.5808
    18.7314  18.8033  18.9915  19.8238  19.8898  20.0078  20.0968  20.1522
    20.2642

          k = 0.2500 0.2500 0.2500 (  6493 PWs)   bands (ev):

   -86.7301 -68.9270 -68.9180 -68.9180 -68.8839 -68.8665 -68.8616 -68.8616
   -68.8440 -68.8440 -68.8430 -68.8238 -68.8237 -68.8237 -68.8033 -46.9351
   -46.9351 -46.8607 -35.1752 -35.1389 -35.1389 -35.1281 -35.1281 -35.1228
   -35.1191 -35.1191 -35.1161 -35.0586 -35.0586 -35.0464 -35.0464 -35.0384
   -35.0258 -35.0096 -34.9925 -34.9925 -34.9758 -34.9725 -34.9725 -34.9380
   -34.9380 -34.9246 -34.9179 -34.9179 -34.9093 -34.9093 -34.9065 -34.8953
   -34.8773 -34.8548 -34.8548 -34.8524 -34.8317 -34.8260 -34.8260 -34.8206
   -34.8206 -34.8034 -34.8034 -34.7920   9.1200  11.2193  11.2193  11.4064
    12.6246  12.6246  12.7909  13.4245  13.4245  13.5869  13.6922  13.6922
    14.0254  14.0718  14.0718  14.0956  14.4045  14.4145  14.4145  14.7625
    14.7687  14.7687  14.8503  14.8503  15.0660  15.0674  15.0674  15.0761
    15.4113  15.4113  15.4239  15.4668  15.4668  15.6740  15.6893  15.6893
    15.7279  15.7577  15.7577  15.9765  15.9765  16.1641  16.1641  16.2958
    16.4884  16.6226  16.6226  17.0366  17.1564  17.1564  17.2368  17.2368
    17.2727  17.3689  17.5248  17.5248  17.5404  17.7664  17.7958  17.7958
    17.9294  18.0330  18.0330  18.1164  18.1891  18.1891  18.2525  18.2525
    18.3194  18.3194  18.3442  18.3994  18.3994  18.4949  18.4949  18.5623
    18.5641  18.5641  18.6555  18.9875  18.9875  19.0093  20.2392  20.2392
    20.3804

          k = 0.2500 0.2500-0.5000 (  6456 PWs)   bands (ev):

   -86.7301 -68.9238 -68.9201 -68.9176 -68.8842 -68.8697 -68.8626 -68.8603
   -68.8455 -68.8434 -68.8419 -68.8272 -68.8236 -68.8150 -68.8068 -46.9297
   -46.9241 -46.8510 -35.1522 -35.1465 -35.1463 -35.1290 -35.1239 -35.1188
   -35.1038 -35.1015 -35.0862 -35.0796 -35.0655 -35.0503 -35.0453 -35.0306
   -35.0240 -35.0162 -35.0064 -34.9984 -34.9836 -34.9795 -34.9787 -34.9424
   -34.9411 -34.9349 -34.9240 -34.9087 -34.9000 -34.8948 -34.8892 -34.8761
   -34.8759 -34.8611 -34.8557 -34.8516 -34.8322 -34.8260 -34.8237 -34.8192
   -34.8084 -34.8078 -34.8022 -34.7957   9.8554  10.1133  11.8008  11.8018
    11.9467  12.2118  13.2006  13.5169  13.6323  13.7091  13.7928  13.8215
    13.9588  14.0739  14.1844  14.2285  14.3240  14.4099  14.5810  14.6209
    14.6557  14.8657  14.9019  14.9218  14.9597  15.0016  15.0929  15.1269
    15.1802  15.2116  15.3436  15.4019  15.4208  15.4821  15.5555  15.5703
    15.6007  15.6949  15.7539  15.8109  15.8551  15.9138  15.9777  16.2698
    16.4253  16.5272  16.7473  16.8489  17.0372  17.1413  17.3079  17.3682
    17.4254  17.5251  17.5559  17.5860  17.7132  17.7176  17.8408  17.8667
    17.9874  18.0037  18.1068  18.1519  18.1823  18.2040  18.2242  18.2560
    18.2751  18.3271  18.3346  18.3480  18.3866  18.4526  18.4751  18.5119
    18.5374  18.5804  18.6148  18.6323  18.7059  19.8272  19.9866  20.7649
    20.8242

          k = 0.2500-0.5000-0.5000 (  6472 PWs)   bands (ev):

   -86.7301 -68.9211 -68.9208 -68.9181 -68.8849 -68.8690 -68.8674 -68.8588
   -68.8469 -68.8427 -68.8403 -68.8295 -68.8175 -68.8161 -68.8087 -46.9301
   -46.9294 -46.8559 -35.1460 -35.1331 -35.1312 -35.1242 -35.1222 -35.1176
   -35.1042 -35.0952 -35.0868 -35.0670 -35.0469 -35.0463 -35.0448 -35.0404
   -35.0365 -35.0312 -35.0277 -35.0207 -35.0066 -34.9893 -34.9847 -34.9401
   -34.9342 -34.9308 -34.9122 -34.9066 -34.9012 -34.8944 -34.8841 -34.8814
   -34.8699 -34.8635 -34.8545 -34.8482 -34.8321 -34.8321 -34.8265 -34.8212
   -34.8140 -34.8089 -34.8058 -34.7975  10.5641  10.7139  10.7169  11.1685
    12.3870  12.5335  12.5411  13.0865  13.8103  13.9366  14.0421  14.0876
    14.1089  14.2072  14.2702  14.3738  14.4868  14.4969  14.5648  14.5870
    14.7080  14.7150  14.8023  14.8469  14.8585  14.9799  14.9992  15.0831
    15.1434  15.2122  15.2434  15.2975  15.3363  15.4007  15.4525  15.4762
    15.5081  15.6051  15.6128  15.7161  15.7232  15.8116  15.9051  15.9461
    16.0650  16.6123  16.6244  16.7519  17.1353  17.1887  17.4044  17.4348
    17.5882  17.6667  17.6925  17.7153  17.7828  17.8704  17.8772  17.8958
    17.9124  17.9864  18.0246  18.0474  18.0853  18.1652  18.1771  18.2098
    18.2173  18.2523  18.2925  18.2972  18.3112  18.3661  18.3781  18.4465
    18.5135  18.5641  18.6656  19.1002  19.1472  19.1665  19.2187  21.6758
    21.8404

          k =-0.5000-0.5000-0.5000 (  6488 PWs)   bands (ev):

   -86.7301 -68.9204 -68.9204 -68.9175 -68.8859 -68.8696 -68.8696 -68.8573
   -68.8482 -68.8409 -68.8409 -68.8296 -68.8163 -68.8163 -68.8088 -46.9318
   -46.9318 -46.8579 -35.1084 -35.1084 -35.1007 -35.1002 -35.1002 -35.0944
   -35.0908 -35.0908 -35.0820 -35.0777 -35.0777 -35.0744 -35.0742 -35.0742
   -35.0638 -35.0547 -35.0390 -35.0390 -35.0192 -34.9878 -34.9878 -34.9320
   -34.9320 -34.9254 -34.8823 -34.8823 -34.8812 -34.8763 -34.8763 -34.8722
   -34.8688 -34.8631 -34.8631 -34.8494 -34.8410 -34.8369 -34.8369 -34.8268
   -34.8268 -34.8212 -34.8212 -34.8095  11.1904  11.4243  11.4243  11.4608
    11.5147  11.5561  11.5561  12.5407  13.9953  13.9953  14.1812  14.1812
    14.2696  14.5849  14.5849  14.6005  14.6276  14.7030  14.7030  14.7241
    14.7241  14.8351  14.8384  14.8384  14.8678  15.0354  15.0566  15.0566
    15.0894  15.0894  15.2544  15.2773  15.2773  15.3221  15.3350  15.3350
    15.3388  15.3647  15.4507  15.4507  15.4605  15.5515  15.5515  15.6186
    15.6186  16.6402  16.6402  16.6403  17.2863  17.2863  17.4995  17.4995
    17.7355  17.9260  17.9260  17.9514  17.9908  17.9908  18.0198  18.0198
    18.0590  18.1265  18.1265  18.1418  18.1418  18.1697  18.2062  18.2127
    18.2647  18.2647  18.2791  18.2890  18.2890  18.3443  18.3443  18.3834
    18.3856  18.3856  18.4067  18.5348  18.5348  18.5467  18.8217  23.4610
    23.4610

          k =-0.2500 0.0000 0.2500 (  6500 PWs)   bands (ev):

   -86.7301 -68.9305 -68.9169 -68.9161 -68.8830 -68.8716 -68.8574 -68.8541
   -68.8470 -68.8442 -68.8415 -68.8317 -68.8288 -68.8175 -68.8016 -46.9391
   -46.9358 -46.8601 -35.1807 -35.1752 -35.1716 -35.1439 -35.1233 -35.1219
   -35.1054 -35.1031 -35.0811 -35.0641 -35.0574 -35.0519 -35.0347 -35.0145
   -35.0054 -35.0028 -34.9875 -34.9832 -34.9757 -34.9729 -34.9669 -34.9657
   -34.9577 -34.9341 -34.9224 -34.9202 -34.9146 -34.9048 -34.8934 -34.8883
   -34.8811 -34.8672 -34.8609 -34.8521 -34.8429 -34.8324 -34.8273 -34.8200
   -34.8062 -34.8020 -34.8002 -34.7871   8.8257  10.8923  11.1860  12.4122
    12.6417  12.6661  13.0875  13.1916  13.2186  13.3259  13.3816  13.4793
    13.7901  13.9401  13.9846  14.1842  14.3143  14.4550  14.5138  14.7472
    14.7765  14.8264  14.8866  14.9028  15.0222  15.1463  15.1676  15.3473
    15.4034  15.4627  15.5330  15.6091  15.6700  15.7552  15.7850  15.8425
    15.9141  15.9811  16.0251  16.0449  16.1011  16.2110  16.3571  16.4506
    16.5083  16.5720  16.7055  16.8468  16.8989  16.9906  17.1426  17.2051
    17.2538  17.2958  17.3974  17.6179  17.6991  17.7347  17.8591  17.8940
    17.9547  17.9884  18.0626  18.1019  18.1440  18.2354  18.2388  18.2753
    18.2818  18.3122  18.3535  18.3833  18.4549  18.4729  18.5038  18.5198
    18.5529  18.5833  18.9895  19.0098  19.0565  19.4148  19.5213  19.7082
    19.8502

          k = 0.2500-0.2500 0.2500 (  6493 PWs)   bands (ev):

   -86.7301 -68.9282 -68.9179 -68.9163 -68.8835 -68.8715 -68.8617 -68.8537
   -68.8478 -68.8439 -68.8404 -68.8325 -68.8237 -68.8169 -68.8038 -46.9350
   -46.9346 -46.8611 -35.1668 -35.1609 -35.1583 -35.1320 -35.1249 -35.1221
   -35.1148 -35.1030 -35.0742 -35.0615 -35.0588 -35.0507 -35.0430 -35.0381
   -35.0223 -35.0201 -35.0089 -34.9941 -34.9886 -34.9772 -34.9743 -34.9348
   -34.9333 -34.9220 -34.9213 -34.9192 -34.9072 -34.9038 -34.8965 -34.8881
   -34.8784 -34.8665 -34.8570 -34.8558 -34.8383 -34.8240 -34.8231 -34.8195
   -34.8133 -34.8022 -34.8010 -34.7959   9.1235  11.1165  11.2202  11.5201
    12.5733  12.6092  12.8475  13.4830  13.5434  13.5862  13.6352  13.6563
    13.9145  13.9829  14.0884  14.1672  14.2806  14.3721  14.4975  14.6592
    14.7893  14.8274  14.8908  14.9205  14.9806  15.0589  15.1692  15.2899
    15.3108  15.3888  15.4003  15.4839  15.5438  15.6412  15.6588  15.6804
    15.7578  15.7734  15.8304  15.8670  15.9858  16.0552  16.1750  16.2999
    16.5297  16.5693  16.7103  16.8725  16.9102  17.0975  17.1399  17.3717
    17.3833  17.4339  17.4620  17.6192  17.6860  17.7580  17.8513  17.9320
    17.9366  17.9741  18.0298  18.1053  18.1189  18.2273  18.2630  18.2661
    18.2844  18.3320  18.3341  18.3744  18.4439  18.4743  18.4931  18.5297
    18.5344  18.5938  18.6291  18.9650  18.9669  19.0278  20.2020  20.2556
    20.4221

          k = 0.2500-0.2500-0.5000 (  6456 PWs)   bands (ev):

   -86.7301 -68.9243 -68.9208 -68.9161 -68.8841 -68.8714 -68.8646 -68.8540
   -68.8486 -68.8433 -68.8398 -68.8327 -68.8198 -68.8146 -68.8074 -46.9259
   -46.9254 -46.8536 -35.1501 -35.1427 -35.1412 -35.1362 -35.1256 -35.1177
   -35.1032 -35.0903 -35.0842 -35.0768 -35.0695 -35.0585 -35.0539 -35.0412
   -35.0251 -35.0129 -35.0079 -34.9959 -34.9908 -34.9860 -34.9798 -34.9436
   -34.9357 -34.9249 -34.9175 -34.9003 -34.8988 -34.8885 -34.8863 -34.8785
   -34.8724 -34.8633 -34.8554 -34.8517 -34.8397 -34.8295 -34.8234 -34.8176
   -34.8138 -34.8095 -34.8006 -34.7965   9.8561  10.1162  11.7161  11.8723
    11.9079  12.2693  13.1913  13.5049  13.6664  13.7937  13.8402  13.8722
    13.9203  13.9706  14.1533  14.1820  14.2923  14.3888  14.5174  14.5897
    14.7495  14.8519  14.9060  14.9490  14.9712  15.0273  15.1056  15.1425
    15.1902  15.2476  15.3660  15.4035  15.4624  15.4770  15.5474  15.5808
    15.5999  15.6774  15.7154  15.7472  15.8072  15.8846  15.9696  16.3531
    16.4446  16.5997  16.6881  16.8337  16.9854  17.0301  17.3224  17.3419
    17.4242  17.5251  17.5816  17.6614  17.7333  17.7885  17.8271  17.8900
    17.9661  18.0082  18.0698  18.1053  18.1769  18.1957  18.2525  18.2834
    18.3244  18.3438  18.3516  18.3826  18.3957  18.4426  18.4725  18.5259
    18.5392  18.5777  18.6085  18.6228  18.6533  19.8018  19.9638  20.7396
    20.8433

     the Fermi energy is    16.2433 ev

!    total energy              =   -3807.99326472 Ry
     estimated scf accuracy    <          8.0E-09 Ry
     smearing contrib. (-TS)   =       0.01579819 Ry
     internal energy E=F+TS    =   -3808.00906291 Ry

     The total energy is F=E-TS. E is the sum of the following terms:
     one-electron contribution =   -1954.16016234 Ry
     hartree contribution      =    1103.24064455 Ry
     xc contribution           =    -422.84177136 Ry
     ewald contribution        =   -2534.24777376 Ry

     total magnetization       =    36.62 Bohr mag/cell
     absolute magnetization    =    39.10 Bohr mag/cell

     convergence has been achieved in  12 iterations

     negative rho (up, down):  0.000E+00 1.956E-03

     Forces acting on atoms (cartesian axes, Ry/au):

     atom    1 type  2   force =    -0.00189482   -0.00189482   -0.00189482
     atom    2 type  1   force =    -0.00014829    0.00143469    0.00143469
     atom    3 type  1   force =     0.00143469   -0.00014829    0.00143469
     atom    4 type  1   force =     0.00113932    0.00113932   -0.00096499
     atom    5 type  1   force =     0.00143469    0.00143469   -0.00014829
     atom    6 type  1   force =     0.00113932   -0.00096499    0.00113932
     atom    7 type  1   force =    -0.00096499    0.00113932    0.00113932
     atom    8 type  1   force =     0.00001765    0.00001765    0.00001765
     atom    9 type  1   force =    -0.00055512   -0.00020502   -0.00020502
     atom   10 type  1   force =    -0.00020502   -0.00055512   -0.00020502
     atom   11 type  1   force =    -0.00014488   -0.00014488    0.00030331
     atom   12 type  1   force =    -0.00020502   -0.00020502   -0.00055512
     atom   13 type  1   force =    -0.00014488    0.00030331   -0.00014488
     atom   14 type  1   force =     0.00030331   -0.00014488   -0.00014488
     atom   15 type  1   force =    -0.00120596   -0.00120596   -0.00120596

     Total force =     0.006302     Total SCF correction =     0.000239
     Energy error            =      4.0E-05 Ry
     Gradient error          =      1.9E-03 Ry/Bohr

     number of scf cycles    =   7
     number of bfgs steps    =   6

     energy             old  =   -3807.9932245921 Ry
     energy             new  =   -3807.9932647215 Ry

     CASE: energy            _new < energy            _old


     WARNING: bfgs curvature condition failed, Theta= 0.828
     new trust radius        =       0.0030851784 bohr
     new conv_thr            =       0.0000000100 Ry


ATOMIC_POSITIONS (crystal)
Ni               0.0037862913        0.0037862913        0.0037862913
Fe               0.4906488572        0.0084081756        0.0084081756
Fe               0.0084081756        0.4906488572        0.0084081756
Fe               0.4945591159        0.4945591159        0.0082261977
Fe               0.0084081756        0.0084081756        0.4906488572
Fe               0.4945591159        0.0082261977        0.4945591159
Fe               0.0082261977        0.4945591159        0.4945591159
Fe               0.4888135084        0.4888135084        0.4888135084
Fe               0.7544142973        0.2484213076        0.2484213076
Fe               0.2484213076        0.7544142973        0.2484213076
Fe               0.7482019664        0.7482019664        0.2515201573
Fe               0.2484213076        0.2484213076        0.7544142973
Fe               0.7482019664        0.2515201573        0.7482019664
Fe               0.2515201573        0.7482019664        0.7482019664
Fe               0.7534095598        0.7534095598        0.7534095598



     Writing config-only to output data dir ./outdir/fe15_ni1_end.save/ :
     XML data file
     NEW-OLD atomic charge density approx. for the potential

     Check: negative core charge=   -0.000004

     negative rho (up, down):  0.000E+00 2.014E-03
     Generating pointlists ...

     total cpu time spent up to now is     3976.9 secs

     per-process dynamical memory:   178.6 Mb

     Self-consistent Calculation

     iteration #  1     ecut=    45.00 Ry     beta= 0.10
     Davidson diagonalization with overlap
     ethr =  1.00E-06,  avg # of iterations =  6.0

     negative rho (up, down):  0.000E+00 2.015E-03

     total cpu time spent up to now is     4014.7 secs

     total energy              =   -3807.99332297 Ry
     estimated scf accuracy    <       0.00041394 Ry

     total magnetization       =    36.62 Bohr mag/cell
     absolute magnetization    =    39.10 Bohr mag/cell

     iteration #  2     ecut=    45.00 Ry     beta= 0.10
     Davidson diagonalization with overlap
     ethr =  1.71E-07,  avg # of iterations =  2.1

     negative rho (up, down):  0.000E+00 2.015E-03

     total cpu time spent up to now is     4037.2 secs

     total energy              =   -3807.99318704 Ry
     estimated scf accuracy    <       0.00577052 Ry

     total magnetization       =    36.62 Bohr mag/cell
     absolute magnetization    =    39.10 Bohr mag/cell

     iteration #  3     ecut=    45.00 Ry     beta= 0.10
     Davidson diagonalization with overlap
     ethr =  1.71E-07,  avg # of iterations =  2.0

     negative rho (up, down):  0.000E+00 2.014E-03

     total cpu time spent up to now is     4060.1 secs

     total energy              =   -3807.99325451 Ry
     estimated scf accuracy    <       0.00011939 Ry

     total magnetization       =    36.62 Bohr mag/cell
     absolute magnetization    =    39.10 Bohr mag/cell

     iteration #  4     ecut=    45.00 Ry     beta= 0.10
     Davidson diagonalization with overlap
     ethr =  4.93E-08,  avg # of iterations =  1.7

     negative rho (up, down):  0.000E+00 2.013E-03

     total cpu time spent up to now is     4080.6 secs

     total energy              =   -3807.99326639 Ry
     estimated scf accuracy    <       0.00000591 Ry

     total magnetization       =    36.62 Bohr mag/cell
     absolute magnetization    =    39.10 Bohr mag/cell

     iteration #  5     ecut=    45.00 Ry     beta= 0.10
     Davidson diagonalization with overlap
     ethr =  2.44E-09,  avg # of iterations =  2.2

     negative rho (up, down):  0.000E+00 2.012E-03

     total cpu time spent up to now is     4102.5 secs

     total energy              =   -3807.99327046 Ry
     estimated scf accuracy    <       0.00000537 Ry

     total magnetization       =    36.62 Bohr mag/cell
     absolute magnetization    =    39.10 Bohr mag/cell

     iteration #  6     ecut=    45.00 Ry     beta= 0.10
     Davidson diagonalization with overlap
     ethr =  2.22E-09,  avg # of iterations =  2.0

     negative rho (up, down):  0.000E+00 2.011E-03

     total cpu time spent up to now is     4125.4 secs

     total energy              =   -3807.99327977 Ry
     estimated scf accuracy    <       0.00002355 Ry

     total magnetization       =    36.62 Bohr mag/cell
     absolute magnetization    =    39.10 Bohr mag/cell

     iteration #  7     ecut=    45.00 Ry     beta= 0.10
     Davidson diagonalization with overlap
     ethr =  2.22E-09,  avg # of iterations =  2.0

     negative rho (up, down):  0.000E+00 2.011E-03

     total cpu time spent up to now is     4147.9 secs

     total energy              =   -3807.99328376 Ry
     estimated scf accuracy    <       0.00000161 Ry

     total magnetization       =    36.62 Bohr mag/cell
     absolute magnetization    =    39.10 Bohr mag/cell

     iteration #  8     ecut=    45.00 Ry     beta= 0.10
     Davidson diagonalization with overlap
     ethr =  6.65E-10,  avg # of iterations =  1.6

     negative rho (up, down):  0.000E+00 2.012E-03

     total cpu time spent up to now is     4168.0 secs

     total energy              =   -3807.99328713 Ry
     estimated scf accuracy    <       0.00000027 Ry

     total magnetization       =    36.62 Bohr mag/cell
     absolute magnetization    =    39.10 Bohr mag/cell

     iteration #  9     ecut=    45.00 Ry     beta= 0.10
     Davidson diagonalization with overlap
     ethr =  1.11E-10,  avg # of iterations =  2.5

     negative rho (up, down):  0.000E+00 2.012E-03

     total cpu time spent up to now is     4189.7 secs

     total energy              =   -3807.99329003 Ry
     estimated scf accuracy    <       0.00000006 Ry

     total magnetization       =    36.62 Bohr mag/cell
     absolute magnetization    =    39.10 Bohr mag/cell

     iteration # 10     ecut=    45.00 Ry     beta= 0.10
     Davidson diagonalization with overlap
     ethr =  2.38E-11,  avg # of iterations =  2.8

     negative rho (up, down):  0.000E+00 2.014E-03

     total cpu time spent up to now is     4212.5 secs

     total energy              =   -3807.99329262 Ry
     estimated scf accuracy    <       0.00000016 Ry

     total magnetization       =    36.62 Bohr mag/cell
     absolute magnetization    =    39.10 Bohr mag/cell

     iteration # 11     ecut=    45.00 Ry     beta= 0.10
     Davidson diagonalization with overlap
     ethr =  2.38E-11,  avg # of iterations =  2.0

     negative rho (up, down):  0.000E+00 2.014E-03

     total cpu time spent up to now is     4234.9 secs

     total energy              =   -3807.99329471 Ry
     estimated scf accuracy    <       0.00000020 Ry

     total magnetization       =    36.62 Bohr mag/cell
     absolute magnetization    =    39.10 Bohr mag/cell

     iteration # 12     ecut=    45.00 Ry     beta= 0.10
     Davidson diagonalization with overlap
     ethr =  2.38E-11,  avg # of iterations =  2.0

     negative rho (up, down):  0.000E+00 2.014E-03

     total cpu time spent up to now is     4256.9 secs

     total energy              =   -3807.99329628 Ry
     estimated scf accuracy    <       0.00000002 Ry

     total magnetization       =    36.62 Bohr mag/cell
     absolute magnetization    =    39.10 Bohr mag/cell

     iteration # 13     ecut=    45.00 Ry     beta= 0.10
     Davidson diagonalization with overlap
     ethr =  7.99E-12,  avg # of iterations =  2.4

     negative rho (up, down):  0.000E+00 2.015E-03

     total cpu time spent up to now is     4281.1 secs

     total energy              =   -3807.99329725 Ry
     estimated scf accuracy    <       0.00000024 Ry

     total magnetization       =    36.62 Bohr mag/cell
     absolute magnetization    =    39.10 Bohr mag/cell

     iteration # 14     ecut=    45.00 Ry     beta= 0.10
     Davidson diagonalization with overlap
     ethr =  7.99E-12,  avg # of iterations =  2.8

     negative rho (up, down):  0.000E+00 2.016E-03

     total cpu time spent up to now is     4306.5 secs

     total energy              =   -3807.99329836 Ry
     estimated scf accuracy    <       0.00000007 Ry

     total magnetization       =    36.62 Bohr mag/cell
     absolute magnetization    =    39.10 Bohr mag/cell

     iteration # 15     ecut=    45.00 Ry     beta= 0.10
     Davidson diagonalization with overlap
     ethr =  7.99E-12,  avg # of iterations =  2.3

     negative rho (up, down):  0.000E+00 2.017E-03

     total cpu time spent up to now is     4330.7 secs

     total energy              =   -3807.99329903 Ry
     estimated scf accuracy    <       0.00000009 Ry

     total magnetization       =    36.62 Bohr mag/cell
     absolute magnetization    =    39.10 Bohr mag/cell

     iteration # 16     ecut=    45.00 Ry     beta= 0.10
     Davidson diagonalization with overlap
     ethr =  7.99E-12,  avg # of iterations =  2.5

     negative rho (up, down):  0.000E+00 2.017E-03

     total cpu time spent up to now is     4355.2 secs

     total energy              =   -3807.99329983 Ry
     estimated scf accuracy    <       0.00000021 Ry

     total magnetization       =    36.62 Bohr mag/cell
     absolute magnetization    =    39.10 Bohr mag/cell

     iteration # 17     ecut=    45.00 Ry     beta= 0.10
     Davidson diagonalization with overlap
     ethr =  7.99E-12,  avg # of iterations =  3.0

     negative rho (up, down):  0.000E+00 2.017E-03

     total cpu time spent up to now is     4380.7 secs

     total energy              =   -3807.99330019 Ry
     estimated scf accuracy    <       0.00000036 Ry

     total magnetization       =    36.62 Bohr mag/cell
     absolute magnetization    =    39.10 Bohr mag/cell

     iteration # 18     ecut=    45.00 Ry     beta= 0.10
     Davidson diagonalization with overlap
     ethr =  7.99E-12,  avg # of iterations =  2.3

     negative rho (up, down):  0.000E+00 2.018E-03

     Magnetic moment per site  (integrated on atomic sphere of radius R)
     atom   1 (R=0.176)  charge= 16.5662  magn=  0.9592
     atom   2 (R=0.176)  charge= 14.2976  magn=  2.6080
     atom   3 (R=0.176)  charge= 14.2976  magn=  2.6080
     atom   4 (R=0.176)  charge= 14.2909  magn=  2.6558
     atom   5 (R=0.176)  charge= 14.2976  magn=  2.6080
     atom   6 (R=0.176)  charge= 14.2909  magn=  2.6558
     atom   7 (R=0.176)  charge= 14.2909  magn=  2.6558
     atom   8 (R=0.176)  charge= 14.2811  magn=  2.6957
     atom   9 (R=0.176)  charge= 14.3636  magn=  2.4430
     atom  10 (R=0.176)  charge= 14.3636  magn=  2.4430
     atom  11 (R=0.176)  charge= 14.2962  magn=  2.6591
     atom  12 (R=0.176)  charge= 14.3636  magn=  2.4430
     atom  13 (R=0.176)  charge= 14.2962  magn=  2.6591
     atom  14 (R=0.176)  charge= 14.2962  magn=  2.6591
     atom  15 (R=0.176)  charge= 14.2487  magn=  2.7904

     total cpu time spent up to now is     4404.1 secs

     End of self-consistent calculation

 ------ SPIN UP ------------


          k = 0.0000 0.0000 0.0000 (  6451 PWs)   bands (ev):

   -88.0687 -72.3794 -72.2599 -72.2491 -72.2491 -72.2008 -72.1838 -72.1838
   -72.1794 -72.1033 -72.1025 -72.1025 -71.9100 -71.9100 -71.9042 -48.2726
   -48.2726 -48.1610 -38.4803 -38.3969 -38.3969 -38.3418 -38.3394 -38.3394
   -38.3236 -38.2890 -38.2890 -38.2802 -38.2713 -38.2581 -38.2546 -38.2546
   -38.2245 -38.2245 -38.1944 -38.1712 -38.1712 -38.1545 -38.1545 -38.1255
   -38.1255 -38.1080 -38.1043 -38.0949 -38.0949 -38.0657 -38.0600 -38.0600
   -38.0535 -38.0535 -38.0482 -37.9750 -37.9214 -37.9214 -37.8653 -37.8653
   -37.8082 -37.8049 -37.8049 -37.8046   8.0822  11.4046  11.4200  11.4200
    11.4596  11.5121  11.5121  11.5491  11.5491  11.6724  11.7494  11.7494
    12.0832  12.0832  12.4146  12.7209  12.7297  12.7297  12.8148  12.8148
    12.8345  12.9550  12.9550  12.9900  13.1668  13.1668  13.2209  13.2389
    13.4340  13.4340  13.4736  13.6050  13.6050  13.7959  13.8080  13.8080
    14.0443  14.0443  14.0657  14.1401  14.1425  14.1425  14.1777  14.1777
    14.2424  14.5490  14.5672  14.5672  14.7379  14.8293  14.8293  14.8500
    14.8500  14.9411  15.0089  15.0150  15.0150  15.0799  15.0799  15.1338
    15.1338  15.1974  15.1974  15.2064  15.2064  15.2236  15.2441  15.4574
    15.5805  15.5805  15.9955  15.9955  16.0436  16.0436  16.1332  16.1332
    16.1558  16.1783  16.2978  16.2978  16.3502  16.5646  16.6098  16.6098
    16.6632

          k = 0.0000 0.0000 0.2500 (  6495 PWs)   bands (ev):

   -88.0688 -72.3794 -72.2587 -72.2505 -72.2492 -72.2010 -72.1839 -72.1835
   -72.1797 -72.1037 -72.1027 -72.1023 -71.9102 -71.9094 -71.9048 -48.2856
   -48.2813 -48.1717 -38.4815 -38.3976 -38.3957 -38.3473 -38.3408 -38.3393
   -38.3224 -38.2948 -38.2876 -38.2811 -38.2730 -38.2626 -38.2546 -38.2461
   -38.2289 -38.2267 -38.1980 -38.1849 -38.1834 -38.1676 -38.1462 -38.1436
   -38.1275 -38.1183 -38.1047 -38.0964 -38.0894 -38.0620 -38.0580 -38.0535
   -38.0500 -38.0391 -38.0385 -37.9713 -37.9319 -37.9274 -37.8625 -37.8602
   -37.8186 -37.8164 -37.8134 -37.8113   8.3823  10.5367  11.5059  11.5091
    11.5367  11.5808  11.6005  11.6304  11.6962  11.7778  11.8269  11.8687
    12.1375  12.1774  12.4385  12.6395  12.6766  12.6849  12.7438  12.7689
    12.8652  12.8845  12.9309  13.1059  13.1066  13.1505  13.2052  13.2517
    13.3324  13.5734  13.5774  13.6043  13.7286  13.7402  13.7631  13.7860
    13.8167  13.8517  13.9057  14.0843  14.0915  14.2793  14.3099  14.3569
    14.3815  14.4659  14.5357  14.5787  14.6054  14.6146  14.6457  14.7188
    14.7850  14.8607  14.9294  14.9553  15.0227  15.0261  15.0788  15.1026
    15.1088  15.1335  15.1562  15.1573  15.1823  15.1885  15.2306  15.2932
    15.3171  15.4697  15.5237  15.5310  15.5997  15.9000  16.0513  16.0789
    16.1041  16.1637  16.2799  16.2814  16.4388  16.6397  16.7878  16.8631
    17.0134

          k = 0.0000 0.0000-0.5000 (  6480 PWs)   bands (ev):

   -88.0688 -72.3793 -72.2569 -72.2523 -72.2492 -72.2011 -72.1839 -72.1828
   -72.1801 -72.1039 -72.1027 -72.1020 -71.9102 -71.9081 -71.9061 -48.2856
   -48.2766 -48.1689 -38.4793 -38.3924 -38.3865 -38.3501 -38.3356 -38.3338
   -38.3010 -38.2991 -38.2969 -38.2897 -38.2735 -38.2594 -38.2531 -38.2397
   -38.2353 -38.2316 -38.2028 -38.1900 -38.1898 -38.1870 -38.1521 -38.1437
   -38.1387 -38.1179 -38.0996 -38.0975 -38.0856 -38.0619 -38.0539 -38.0487
   -38.0485 -38.0275 -38.0245 -37.9640 -37.9389 -37.9275 -37.8558 -37.8481
   -37.8275 -37.8260 -37.8150 -37.8117   9.1383   9.4045  11.6281  11.6425
    11.6444  11.7104  11.7687  11.7943  11.8417  11.8790  11.9438  12.0658
    12.0722  12.2022  12.3234  12.3557  12.3952  12.6177  12.6325  12.6436
    12.9697  12.9725  13.2209  13.2292  13.2844  13.2867  13.2877  13.4208
    13.4468  13.4824  13.5650  13.5986  13.6133  13.6338  13.6570  13.7242
    13.7496  13.7813  13.8047  13.9408  13.9548  14.1281  14.1815  14.2032
    14.2505  14.3053  14.3841  14.4683  14.5102  14.5386  14.6180  14.6489
    14.6975  14.7620  14.7794  14.9189  15.0134  15.0542  15.0700  15.0813
    15.0944  15.1009  15.1564  15.1747  15.1813  15.2042  15.2110  15.2578
    15.4041  15.5170  15.6431  15.6617  15.6763  15.7411  15.7636  15.8199
    15.9092  16.2444  16.4339  16.4607  16.5427  16.6037  16.6623  16.7226
    16.7406

          k = 0.0000 0.2500 0.2500 (  6500 PWs)   bands (ev):

   -88.0689 -72.3794 -72.2575 -72.2512 -72.2498 -72.2011 -72.1838 -72.1829
   -72.1802 -72.1036 -72.1029 -72.1022 -71.9098 -71.9090 -71.9056 -48.2863
   -48.2805 -48.1753 -38.4807 -38.3937 -38.3906 -38.3492 -38.3370 -38.3357
   -38.3169 -38.3003 -38.2870 -38.2864 -38.2803 -38.2599 -38.2578 -38.2391
   -38.2374 -38.2258 -38.1941 -38.1931 -38.1825 -38.1636 -38.1493 -38.1427
   -38.1344 -38.1259 -38.1121 -38.1034 -38.0865 -38.0618 -38.0606 -38.0480
   -38.0444 -38.0407 -38.0367 -37.9638 -37.9329 -37.9298 -37.8558 -37.8504
   -37.8275 -37.8166 -37.8164 -37.8120   8.6817  10.6517  10.8043  11.4213
    11.6900  11.6913  11.7140  11.7383  11.8166  11.9185  11.9573  12.0048
    12.2449  12.2491  12.4926  12.5555  12.6070  12.6987  12.7866  12.8182
    12.8650  12.9175  12.9671  12.9681  13.0222  13.0365  13.2179  13.2795
    13.4000  13.4093  13.5110  13.5824  13.5912  13.6823  13.7075  13.7998
    13.8078  13.9060  13.9277  14.0463  14.1112  14.2206  14.2450  14.2973
    14.3243  14.3406  14.4110  14.4341  14.5257  14.5654  14.6339  14.6369
    14.6844  14.7397  14.7888  14.8165  14.9004  14.9636  15.0138  15.0366
    15.0710  15.0804  15.1104  15.1741  15.1951  15.2157  15.2682  15.3497
    15.3524  15.3966  15.4018  15.4818  15.5162  15.5224  15.5725  15.7237
    15.8029  15.8081  16.0771  16.5278  16.5534  17.6040  17.6537  17.8370
    17.9893

          k = 0.0000 0.2500-0.5000 (  6452 PWs)   bands (ev):

   -88.0688 -72.3792 -72.2560 -72.2523 -72.2500 -72.2012 -72.1836 -72.1825
   -72.1805 -72.1039 -72.1028 -72.1019 -71.9095 -71.9080 -71.9066 -48.2764
   -48.2702 -48.1614 -38.4767 -38.3872 -38.3825 -38.3503 -38.3336 -38.3327
   -38.3073 -38.2991 -38.2940 -38.2877 -38.2779 -38.2618 -38.2529 -38.2433
   -38.2362 -38.2248 -38.1932 -38.1855 -38.1832 -38.1668 -38.1496 -38.1449
   -38.1297 -38.1205 -38.1041 -38.0974 -38.0838 -38.0668 -38.0600 -38.0531
   -38.0470 -38.0348 -38.0323 -37.9540 -37.9368 -37.9288 -37.8479 -37.8400
   -37.8276 -37.8228 -37.8143 -37.8101   9.4108   9.6574  11.0631  11.2433
    11.8417  11.8752  11.9671  11.9991  12.0235  12.0318  12.0697  12.1605
    12.1845  12.2891  12.3482  12.4252  12.4647  12.6461  12.7395  12.7503
    12.9673  12.9935  13.0642  13.0958  13.1268  13.1346  13.2004  13.2879
    13.3557  13.4059  13.5319  13.5493  13.5728  13.6051  13.6448  13.6623
    13.6871  13.7722  13.7898  13.8473  13.9144  13.9568  14.0083  14.1028
    14.1547  14.3244  14.4436  14.4612  14.4742  14.5155  14.6370  14.6608
    14.6952  14.7200  14.7528  14.7683  14.8094  14.8679  14.9116  15.0007
    15.0429  15.0587  15.1143  15.1541  15.1650  15.2038  15.2264  15.2340
    15.2975  15.3569  15.3755  15.3995  15.4696  15.4767  15.5223  15.6454
    15.7639  15.9551  16.0967  17.0267  17.0651  17.1479  17.2246  18.7256
    18.8141

          k = 0.0000-0.5000-0.5000 (  6496 PWs)   bands (ev):

   -88.0689 -72.3793 -72.2544 -72.2531 -72.2510 -72.2014 -72.1836 -72.1819
   -72.1812 -72.1039 -72.1031 -72.1018 -71.9084 -71.9081 -71.9078 -48.2878
   -48.2799 -48.1718 -38.4763 -38.3853 -38.3770 -38.3546 -38.3328 -38.3321
   -38.3182 -38.2979 -38.2964 -38.2903 -38.2875 -38.2694 -38.2546 -38.2442
   -38.2383 -38.2251 -38.1875 -38.1859 -38.1783 -38.1506 -38.1475 -38.1435
   -38.1364 -38.1110 -38.1069 -38.1003 -38.0966 -38.0855 -38.0723 -38.0619
   -38.0538 -38.0416 -38.0395 -37.9461 -37.9399 -37.9335 -37.8422 -37.8332
   -37.8324 -37.8213 -37.8210 -37.8101  10.0885  10.1586  10.2106  10.6500
    12.0551  12.0763  12.1093  12.1497  12.2217  12.2399  12.2446  12.3041
    12.3561  12.3802  12.5331  12.5794  12.6351  12.6358  12.6674  12.6809
    12.8263  12.8776  12.8795  12.8977  12.9523  12.9900  13.0158  13.2438
    13.3344  13.3769  13.4321  13.4497  13.5233  13.5253  13.5323  13.5590
    13.6040  13.6873  13.7145  13.7264  13.7715  13.7740  13.8725  14.0657
    14.1247  14.3001  14.3167  14.4182  14.4890  14.5784  14.5948  14.6377
    14.6850  14.6976  14.7319  14.7426  14.7920  14.8100  14.8347  14.9153
    14.9203  14.9609  15.0061  15.0391  15.0543  15.0948  15.1321  15.1825
    15.1903  15.2073  15.2336  15.3097  15.3823  15.4199  15.4452  15.6658
    15.7788  16.0468  16.2040  17.8326  17.8839  17.9709  18.0616  18.1350
    18.2852

          k = 0.2500 0.2500 0.2500 (  6493 PWs)   bands (ev):

   -88.0688 -72.3793 -72.2562 -72.2511 -72.2511 -72.2012 -72.1829 -72.1829
   -72.1810 -72.1030 -72.1029 -72.1029 -71.9089 -71.9089 -71.9064 -48.2833
   -48.2833 -48.1712 -38.4787 -38.3869 -38.3869 -38.3504 -38.3324 -38.3324
   -38.3093 -38.3019 -38.2892 -38.2892 -38.2861 -38.2567 -38.2567 -38.2389
   -38.2389 -38.2350 -38.1918 -38.1918 -38.1837 -38.1578 -38.1578 -38.1390
   -38.1390 -38.1287 -38.1155 -38.0888 -38.0888 -38.0662 -38.0662 -38.0601
   -38.0395 -38.0368 -38.0368 -37.9580 -37.9334 -37.9334 -37.8457 -37.8457
   -37.8335 -37.8154 -37.8154 -37.8154   8.9737  10.8710  10.8710  11.0717
    11.6211  11.6211  11.6905  11.9044  11.9044  12.0191  12.1418  12.1418
    12.4036  12.4036  12.5318  12.5564  12.6044  12.7166  12.7166  12.8367
    12.8367  12.9184  12.9614  13.0141  13.0141  13.1183  13.1183  13.2922
    13.3567  13.3593  13.3593  13.4264  13.4264  13.5989  13.5989  13.7224
    13.7224  13.7374  13.8037  13.9076  13.9076  13.9772  14.1513  14.1513
    14.2402  14.2402  14.3478  14.5470  14.5470  14.5547  14.6046  14.6924
    14.6924  14.7711  14.8205  14.8423  14.8423  14.9090  14.9785  14.9785
    15.0522  15.0583  15.0583  15.1662  15.1662  15.2039  15.2052  15.2052
    15.2253  15.3207  15.3207  15.5312  15.5312  15.6103  15.6901  15.6901
    15.7339  15.7339  15.8636  16.5742  16.5742  16.6445  18.5278  18.5278
    18.7196

          k = 0.2500 0.2500-0.5000 (  6456 PWs)   bands (ev):

   -88.0688 -72.3792 -72.2551 -72.2522 -72.2510 -72.2013 -72.1829 -72.1828
   -72.1809 -72.1036 -72.1028 -72.1022 -71.9089 -71.9082 -71.9071 -48.2778
   -48.2721 -48.1613 -38.4752 -38.3829 -38.3792 -38.3503 -38.3319 -38.3304
   -38.3034 -38.2984 -38.2952 -38.2919 -38.2807 -38.2589 -38.2577 -38.2399
   -38.2355 -38.2289 -38.1895 -38.1879 -38.1785 -38.1594 -38.1518 -38.1484
   -38.1284 -38.1253 -38.1081 -38.1018 -38.0990 -38.0674 -38.0581 -38.0567
   -38.0400 -38.0382 -38.0282 -37.9514 -37.9385 -37.9323 -37.8467 -37.8376
   -37.8313 -37.8214 -37.8135 -37.8116   9.6857   9.9148  11.2930  11.3111
    11.3779  11.5778  12.1368  12.1550  12.1896  12.1976  12.2025  12.2244
    12.3058  12.3560  12.4062  12.5247  12.5584  12.6735  12.7544  12.8552
    12.9599  12.9913  13.0043  13.0424  13.0440  13.1075  13.1572  13.1866
    13.2369  13.2849  13.3753  13.4374  13.4502  13.4716  13.5065  13.5320
    13.5564  13.5754  13.5792  13.6256  13.7025  13.7735  13.8045  13.9516
    14.0802  14.2087  14.3450  14.3975  14.5646  14.6082  14.6314  14.6972
    14.7263  14.7347  14.7707  14.8193  14.8416  14.9241  14.9707  15.0313
    15.0454  15.0759  15.1200  15.1267  15.1668  15.1946  15.1981  15.2445
    15.2524  15.3305  15.3776  15.4172  15.4662  15.7074  15.7083  15.7675
    15.8205  15.8428  15.9080  15.9957  16.0512  17.7072  17.8986  19.2300
    19.2481

          k = 0.2500-0.5000-0.5000 (  6472 PWs)   bands (ev):

   -88.0688 -72.3792 -72.2538 -72.2529 -72.2514 -72.2015 -72.1832 -72.1820
   -72.1815 -72.1036 -72.1030 -72.1021 -71.9086 -71.9078 -71.9077 -48.2782
   -48.2775 -48.1662 -38.4739 -38.3777 -38.3731 -38.3518 -38.3307 -38.3300
   -38.3100 -38.2957 -38.2917 -38.2878 -38.2833 -38.2635 -38.2566 -38.2398
   -38.2373 -38.2288 -38.1865 -38.1844 -38.1720 -38.1539 -38.1538 -38.1424
   -38.1409 -38.1285 -38.1255 -38.1187 -38.1119 -38.0608 -38.0549 -38.0492
   -38.0422 -38.0326 -38.0302 -37.9481 -37.9427 -37.9375 -37.8449 -37.8371
   -37.8359 -37.8209 -37.8166 -37.8136  10.3530  10.4314  10.4744  10.8636
    11.8007  11.9215  11.9281  12.1662  12.2473  12.2712  12.3410  12.5565
    12.5582  12.6073  12.6233  12.6712  12.6778  12.7043  12.7077  12.7777
    12.8087  12.8684  12.8688  12.9047  12.9439  12.9701  13.0122  13.1091
    13.1418  13.1909  13.1963  13.2999  13.3098  13.3242  13.3591  13.3707
    13.4146  13.4353  13.4533  13.5431  13.5670  13.5810  13.6397  13.6727
    13.7708  14.2141  14.2159  14.2799  14.6926  14.6926  14.7275  14.8014
    14.8122  14.8508  14.8773  14.8832  14.9501  14.9542  14.9974  15.0324
    15.0574  15.1153  15.1304  15.1340  15.1770  15.2003  15.2065  15.2149
    15.2451  15.2531  15.3015  15.3551  15.3891  15.4209  15.4859  15.6108
    15.6555  15.8183  15.9426  16.6962  16.7394  16.7517  16.8737  20.1741
    20.3106

          k =-0.5000-0.5000-0.5000 (  6488 PWs)   bands (ev):

   -88.0688 -72.3791 -72.2529 -72.2529 -72.2524 -72.2016 -72.1825 -72.1821
   -72.1821 -72.1030 -72.1030 -72.1027 -71.9087 -71.9077 -71.9077 -48.2800
   -48.2800 -48.1683 -38.4720 -38.3683 -38.3683 -38.3517 -38.3273 -38.3273
   -38.3107 -38.2900 -38.2900 -38.2823 -38.2811 -38.2549 -38.2549 -38.2400
   -38.2377 -38.2377 -38.1914 -38.1914 -38.1611 -38.1558 -38.1558 -38.1503
   -38.1390 -38.1375 -38.1375 -38.1327 -38.1327 -38.0445 -38.0410 -38.0410
   -38.0391 -38.0277 -38.0277 -37.9475 -37.9475 -37.9455 -37.8466 -37.8387
   -37.8387 -37.8241 -37.8188 -37.8188  10.9664  11.1067  11.1067  11.1633
    11.1889  11.2060  11.2060  12.0637  12.6481  12.6481  12.6848  12.6848
    12.7120  12.7140  12.7213  12.7213  12.7283  12.7827  12.7827  12.8125
    12.8493  12.8493  12.9017  12.9017  12.9462  12.9462  12.9810  13.0375
    13.0375  13.0842  13.1112  13.1364  13.1370  13.1370  13.1607  13.1813
    13.1813  13.1969  13.1969  13.2037  13.2224  13.2570  13.2570  13.5697
    13.5697  14.1627  14.1801  14.1801  14.7547  14.7547  14.8668  14.8668
    14.8760  14.9339  14.9339  14.9752  14.9752  15.0123  15.0145  15.0815
    15.0815  15.1338  15.1429  15.1429  15.2300  15.3302  15.3302  15.3697
    15.3697  15.3834  15.4472  15.4472  15.5250  15.5888  15.5888  15.7082
    15.7082  15.7490  15.8264  16.0402  16.0402  16.0564  16.1332  22.3738
    22.3738

          k =-0.2500 0.0000 0.2500 (  6500 PWs)   bands (ev):

   -88.0689 -72.3794 -72.2578 -72.2507 -72.2500 -72.2011 -72.1838 -72.1833
   -72.1799 -72.1039 -72.1028 -72.1020 -71.9097 -71.9093 -71.9054 -48.2875
   -48.2841 -48.1705 -38.4794 -38.3923 -38.3920 -38.3502 -38.3394 -38.3380
   -38.3141 -38.2998 -38.2890 -38.2884 -38.2729 -38.2644 -38.2555 -38.2469
   -38.2345 -38.2295 -38.2006 -38.1875 -38.1849 -38.1551 -38.1515 -38.1419
   -38.1299 -38.1152 -38.1048 -38.1006 -38.0872 -38.0656 -38.0615 -38.0595
   -38.0485 -38.0394 -38.0384 -37.9649 -37.9338 -37.9300 -37.8599 -37.8515
   -37.8221 -37.8186 -37.8146 -37.8092   8.6821  10.6162  10.8451  11.4134
    11.6872  11.7009  11.7251  11.7662  11.7826  11.9293  11.9443  11.9977
    12.2276  12.2430  12.4973  12.5644  12.6017  12.7148  12.7742  12.8253
    12.8530  12.8985  12.9742  13.0038  13.0202  13.0275  13.2161  13.3048
    13.4114  13.4336  13.5122  13.5398  13.6332  13.6657  13.7111  13.7766
    13.8054  13.8913  13.9166  14.0368  14.1050  14.1938  14.2699  14.3390
    14.3667  14.3769  14.4252  14.4401  14.4626  14.5221  14.5851  14.6203
    14.6603  14.7760  14.8269  14.8549  14.9086  14.9419  15.0118  15.0462
    15.0749  15.1212  15.1452  15.1637  15.1703  15.2155  15.2602  15.3103
    15.3444  15.4046  15.4398  15.4592  15.5215  15.5364  15.6017  15.6279
    15.6982  15.7721  16.2225  16.5303  16.5632  17.5035  17.6663  17.8440
    18.0746

          k = 0.2500-0.2500 0.2500 (  6493 PWs)   bands (ev):

   -88.0688 -72.3793 -72.2568 -72.2511 -72.2504 -72.2012 -72.1837 -72.1829
   -72.1803 -72.1039 -72.1029 -72.1019 -71.9094 -71.9089 -71.9060 -48.2832
   -48.2829 -48.1716 -38.4779 -38.3877 -38.3860 -38.3509 -38.3360 -38.3347
   -38.3061 -38.3031 -38.2929 -38.2884 -38.2779 -38.2628 -38.2607 -38.2421
   -38.2392 -38.2263 -38.1948 -38.1889 -38.1783 -38.1576 -38.1562 -38.1380
   -38.1333 -38.1257 -38.1228 -38.0985 -38.0957 -38.0632 -38.0615 -38.0491
   -38.0409 -38.0386 -38.0375 -37.9610 -37.9334 -37.9334 -37.8563 -37.8433
   -37.8274 -37.8201 -37.8129 -37.8127   8.9746  10.8218  10.8712  11.1277
    11.5857  11.6091  11.7425  11.8919  11.9310  12.0425  12.1218  12.1312
    12.3848  12.3913  12.5321  12.5555  12.5790  12.7332  12.7405  12.8319
    12.8587  12.9004  12.9321  13.0267  13.0500  13.1109  13.1262  13.3176
    13.3241  13.3526  13.3808  13.4306  13.4537  13.5846  13.6005  13.7174
    13.7317  13.7524  13.7592  13.9000  13.9623  14.0092  14.1284  14.1652
    14.2083  14.2120  14.3742  14.4535  14.4607  14.5413  14.5552  14.6695
    14.7135  14.7394  14.8006  14.8810  14.9032  14.9354  14.9892  14.9967
    15.0423  15.0839  15.1074  15.1191  15.1498  15.1685  15.2062  15.2071
    15.3237  15.3387  15.3866  15.4708  15.5297  15.5721  15.6121  15.6930
    15.7438  15.8635  15.8672  16.5529  16.5543  16.6699  18.4699  18.5287
    18.7742

          k = 0.2500-0.2500-0.5000 (  6456 PWs)   bands (ev):

   -88.0688 -72.3792 -72.2554 -72.2525 -72.2504 -72.2013 -72.1836 -72.1823
   -72.1807 -72.1039 -72.1029 -72.1018 -71.9093 -71.9079 -71.9069 -48.2740
   -48.2734 -48.1639 -38.4755 -38.3827 -38.3789 -38.3516 -38.3335 -38.3307
   -38.3083 -38.3011 -38.2917 -38.2851 -38.2766 -38.2624 -38.2577 -38.2401
   -38.2366 -38.2272 -38.1865 -38.1848 -38.1722 -38.1646 -38.1512 -38.1415
   -38.1380 -38.1315 -38.1200 -38.1081 -38.0961 -38.0650 -38.0579 -38.0449
   -38.0398 -38.0354 -38.0250 -37.9538 -37.9387 -37.9326 -37.8468 -37.8392
   -37.8303 -37.8212 -37.8149 -37.8123   9.6851   9.9163  11.2509  11.3491
    11.3529  11.6173  12.1220  12.1462  12.1754  12.1963  12.2293  12.2459
    12.2937  12.3749  12.3999  12.5165  12.5577  12.6933  12.7393  12.8484
    12.9330  12.9793  13.0038  13.0360  13.0762  13.1150  13.1548  13.2064
    13.2673  13.3295  13.3679  13.4199  13.4389  13.4562  13.5078  13.5179
    13.5402  13.5477  13.5862  13.5935  13.7138  13.7850  13.8110  13.9642
    14.0663  14.2309  14.3333  14.3981  14.5347  14.5713  14.6424  14.6619
    14.7024  14.7471  14.7899  14.8053  14.8156  14.9512  14.9722  15.0314
    15.0451  15.0700  15.1251  15.1421  15.1621  15.1813  15.2051  15.2528
    15.2688  15.3480  15.3873  15.4579  15.4692  15.6267  15.7087  15.8121
    15.8643  15.8716  15.8876  16.0274  16.0483  17.6826  17.8702  19.1679
    19.2453

 ------ SPIN DOWN ----------


          k = 0.0000 0.0000 0.0000 (  6451 PWs)   bands (ev):

   -86.7301 -68.9360 -68.9148 -68.9148 -68.8828 -68.8679 -68.8525 -68.8525
   -68.8424 -68.8421 -68.8421 -68.8376 -68.8376 -68.8221 -68.7962 -46.9245
   -46.9245 -46.8509 -35.2018 -35.1889 -35.1889 -35.1571 -35.1389 -35.1389
   -35.0677 -35.0677 -35.0676 -35.0188 -35.0152 -35.0152 -35.0024 -35.0024
   -34.9976 -34.9972 -34.9972 -34.9831 -34.9686 -34.9686 -34.9622 -34.9587
   -34.9555 -34.9555 -34.9464 -34.9424 -34.9424 -34.9304 -34.9169 -34.9169
   -34.9006 -34.9006 -34.8837 -34.8468 -34.8215 -34.8215 -34.8093 -34.8093
   -34.7856 -34.7788 -34.7788 -34.7725   8.2168  12.1761  12.2443  12.2443
    12.3479  12.3479  12.5172  12.9098  12.9098  13.0137  13.0298  13.0298
    13.5851  13.7556  13.7556  14.3305  14.3305  14.4316  14.7096  14.7096
    14.7460  14.9164  14.9164  14.9855  15.2052  15.2052  15.3751  15.4654
    15.4654  15.6893  15.7326  15.9068  16.0641  16.0641  16.1495  16.1495
    16.3625  16.3625  16.4020  16.4775  16.4843  16.4843  16.5373  16.5373
    16.5671  16.7557  16.7557  16.8870  17.0151  17.0151  17.0817  17.2852
    17.2852  17.3421  17.3421  17.4191  17.5532  17.5532  17.6442  17.8884
    17.9924  17.9924  18.0406  18.1032  18.1032  18.2216  18.2216  18.3565
    18.3565  18.3981  18.4077  18.4131  18.4131  18.4351  18.5758  18.5758
    18.7785  18.7785  18.8225  18.8225  18.8828  18.8828  18.9175  18.9660
    19.0511

          k = 0.0000 0.0000 0.2500 (  6495 PWs)   bands (ev):

   -86.7302 -68.9330 -68.9172 -68.9148 -68.8830 -68.8702 -68.8555 -68.8522
   -68.8452 -68.8425 -68.8423 -68.8377 -68.8293 -68.8199 -68.7990 -46.9373
   -46.9331 -46.8613 -35.1938 -35.1822 -35.1802 -35.1471 -35.1359 -35.1352
   -35.0812 -35.0780 -35.0708 -35.0651 -35.0602 -35.0450 -35.0357 -35.0179
   -35.0128 -35.0035 -34.9812 -34.9761 -34.9732 -34.9648 -34.9577 -34.9514
   -34.9335 -34.9293 -34.9245 -34.9208 -34.9161 -34.9089 -34.9042 -34.8984
   -34.8956 -34.8858 -34.8792 -34.8539 -34.8345 -34.8310 -34.8215 -34.8186
   -34.8067 -34.7985 -34.7957 -34.7895   8.5209  10.7961  12.4045  12.4059
    12.5050  12.5714  12.9234  12.9555  12.9971  13.0004  13.2131  13.3284
    13.6818  13.8767  13.8811  14.2546  14.3405  14.3839  14.5340  14.8001
    14.8009  14.8599  14.9316  15.0180  15.0644  15.0849  15.3745  15.3771
    15.4511  15.4844  15.6346  15.8055  15.8903  15.9124  15.9879  16.0628
    16.0838  16.1230  16.1769  16.2376  16.2705  16.3384  16.3469  16.4919
    16.5114  16.6701  16.7818  16.8452  16.8765  16.9070  17.0856  17.1756
    17.2260  17.2987  17.3910  17.6582  17.7188  17.7374  17.8018  17.8701
    17.9314  17.9707  18.0538  18.0763  18.1522  18.1672  18.2709  18.3240
    18.3494  18.3755  18.4103  18.4882  18.5162  18.6276  18.6533  18.7038
    18.7046  18.7285  18.8343  18.8458  18.8641  18.9127  18.9511  18.9657
    18.9860

          k = 0.0000 0.0000-0.5000 (  6480 PWs)   bands (ev):

   -86.7302 -68.9278 -68.9218 -68.9148 -68.8832 -68.8726 -68.8572 -68.8518
   -68.8455 -68.8428 -68.8423 -68.8377 -68.8266 -68.8134 -68.8042 -46.9373
   -46.9287 -46.8584 -35.1465 -35.1455 -35.1415 -35.1385 -35.1366 -35.1214
   -35.1200 -35.1131 -35.1119 -35.0990 -35.0763 -35.0679 -35.0602 -35.0217
   -35.0152 -35.0039 -34.9900 -34.9875 -34.9800 -34.9674 -34.9609 -34.9461
   -34.9267 -34.9100 -34.9024 -34.8973 -34.8927 -34.8895 -34.8865 -34.8791
   -34.8738 -34.8737 -34.8571 -34.8507 -34.8450 -34.8373 -34.8286 -34.8237
   -34.8220 -34.8161 -34.8151 -34.8052   9.2872   9.5742  12.6235  12.6796
    12.7059  12.7541  12.8815  12.8934  12.9299  13.1445  13.5389  13.6328
    13.7648  13.9502  13.9968  14.0645  14.1204  14.3135  14.4526  14.5559
    14.8553  14.8600  14.9509  15.0776  15.1874  15.2783  15.3603  15.3886
    15.4290  15.4427  15.4479  15.5478  15.5779  15.5845  15.6449  15.8180
    15.8311  15.8623  15.9577  16.0052  16.0744  16.1514  16.1773  16.3281
    16.3435  16.6153  16.7571  17.0168  17.0788  17.2495  17.3328  17.3425
    17.4345  17.4639  17.5080  17.6249  17.6946  17.7645  17.7728  17.8217
    17.8961  17.9304  18.0811  18.2130  18.2465  18.3089  18.3277  18.3385
    18.3633  18.3961  18.4257  18.4523  18.4800  18.4995  18.5231  18.6061
    18.6069  18.7164  18.7813  18.8360  18.8417  18.9543  19.0127  19.0572
    19.0644

          k = 0.0000 0.2500 0.2500 (  6500 PWs)   bands (ev):

   -86.7302 -68.9300 -68.9184 -68.9157 -68.8834 -68.8694 -68.8605 -68.8531
   -68.8461 -68.8445 -68.8415 -68.8330 -68.8237 -68.8209 -68.8015 -46.9380
   -46.9323 -46.8649 -35.1860 -35.1668 -35.1570 -35.1345 -35.1262 -35.1254
   -35.1178 -35.1005 -35.0932 -35.0859 -35.0563 -35.0513 -35.0362 -35.0118
   -35.0036 -35.0018 -34.9947 -34.9773 -34.9763 -34.9709 -34.9676 -34.9581
   -34.9412 -34.9410 -34.9279 -34.9241 -34.9066 -34.8985 -34.8905 -34.8821
   -34.8793 -34.8658 -34.8583 -34.8570 -34.8399 -34.8304 -34.8303 -34.8235
   -34.8195 -34.8070 -34.7925 -34.7888   8.8239  10.9699  11.1021  12.4207
    12.6442  12.6764  13.0589  13.1797  13.2240  13.2549  13.4192  13.5251
    13.7989  13.9228  14.0473  14.2109  14.3251  14.3851  14.5488  14.7089
    14.7976  14.8123  14.8710  14.9492  15.0581  15.0612  15.1553  15.2757
    15.3623  15.4643  15.5362  15.6479  15.6933  15.7572  15.7915  15.8474
    15.9270  15.9543  16.0166  16.1162  16.1437  16.2012  16.2780  16.4170
    16.4954  16.6159  16.6979  16.8543  16.9677  17.0904  17.1339  17.1603
    17.2915  17.3185  17.4052  17.5240  17.5848  17.7390  17.8263  17.9302
    17.9945  18.0362  18.0498  18.1030  18.1320  18.2088  18.2277  18.2712
    18.2833  18.3619  18.3806  18.3908  18.4491  18.4542  18.4728  18.5539
    18.5579  18.6903  18.8409  18.9925  19.0417  19.5093  19.6338  19.7074
    19.7182

          k = 0.0000 0.2500-0.5000 (  6452 PWs)   bands (ev):

   -86.7301 -68.9258 -68.9212 -68.9162 -68.8836 -68.8712 -68.8607 -68.8554
   -68.8463 -68.8445 -68.8409 -68.8316 -68.8238 -68.8142 -68.8060 -46.9283
   -46.9223 -46.8512 -35.1567 -35.1487 -35.1416 -35.1363 -35.1336 -35.1291
   -35.1147 -35.1070 -35.0978 -35.0734 -35.0651 -35.0588 -35.0437 -35.0322
   -35.0147 -34.9947 -34.9929 -34.9817 -34.9762 -34.9734 -34.9690 -34.9515
   -34.9331 -34.9313 -34.9249 -34.9136 -34.9097 -34.8975 -34.8903 -34.8735
   -34.8724 -34.8660 -34.8523 -34.8475 -34.8324 -34.8305 -34.8245 -34.8200
   -34.8127 -34.8066 -34.8039 -34.7928   9.5716   9.8439  11.5494  11.8274
    12.8877  12.9435  13.1079  13.2026  13.5098  13.5798  13.6563  13.6879
    13.8495  13.9492  14.0309  14.0987  14.1929  14.3887  14.4566  14.6275
    14.7419  14.8328  14.9128  15.0083  15.0469  15.0792  15.1715  15.2221
    15.2672  15.3452  15.3877  15.4858  15.5081  15.6089  15.6303  15.6735
    15.7044  15.7698  15.8307  15.9181  16.0036  16.0711  16.1547  16.4156
    16.4761  16.5361  16.8607  16.9302  17.0252  17.1375  17.2173  17.3429
    17.4032  17.4271  17.4979  17.5337  17.5680  17.5964  17.7048  17.8156
    17.8867  17.9663  18.0192  18.0724  18.1251  18.2228  18.2585  18.2755
    18.3211  18.3461  18.3807  18.4008  18.4132  18.4351  18.4698  18.5343
    18.6392  18.7264  18.8553  19.2521  19.3236  19.3510  19.4053  20.1818
    20.4236

          k = 0.0000-0.5000-0.5000 (  6496 PWs)   bands (ev):

   -86.7302 -68.9219 -68.9213 -68.9188 -68.8842 -68.8683 -68.8647 -68.8600
   -68.8460 -68.8447 -68.8396 -68.8292 -68.8189 -68.8157 -68.8086 -46.9396
   -46.9317 -46.8614 -35.1616 -35.1450 -35.1425 -35.1424 -35.1403 -35.1318
   -35.1143 -35.1082 -35.0918 -35.0634 -35.0507 -35.0456 -35.0144 -35.0120
   -35.0076 -35.0000 -34.9970 -34.9921 -34.9888 -34.9859 -34.9779 -34.9665
   -34.9598 -34.9551 -34.9449 -34.9399 -34.9224 -34.9048 -34.8862 -34.8774
   -34.8696 -34.8692 -34.8557 -34.8434 -34.8337 -34.8273 -34.8233 -34.8187
   -34.8091 -34.7975 -34.7959 -34.7863  10.2936  10.4356  10.4445  10.9473
    13.3058  13.3125  13.3397  13.4850  13.5422  13.6289  13.6380  13.7661
    13.9764  13.9948  14.0407  14.0648  14.3980  14.4026  14.5249  14.5273
    14.6886  14.7188  14.7204  14.7835  14.8687  14.9818  15.0462  15.0483
    15.2593  15.2755  15.3496  15.3657  15.4070  15.4510  15.5083  15.5335
    15.6583  15.6977  15.7482  15.9077  16.0130  16.1001  16.1979  16.4369
    16.4688  16.6062  16.6329  16.9050  16.9238  16.9779  17.1395  17.2387
    17.2667  17.3791  17.4916  17.5810  17.6414  17.6958  17.7131  17.7811
    17.8293  17.8774  17.9463  17.9499  18.0574  18.1024  18.1545  18.2283
    18.2484  18.2828  18.2906  18.3157  18.3478  18.4187  18.4503  18.5807
    18.7318  18.8033  18.9915  19.8235  19.8897  20.0081  20.0967  20.1524
    20.2644

          k = 0.2500 0.2500 0.2500 (  6493 PWs)   bands (ev):

   -86.7302 -68.9271 -68.9181 -68.9181 -68.8841 -68.8664 -68.8614 -68.8614
   -68.8440 -68.8440 -68.8429 -68.8238 -68.8236 -68.8236 -68.8033 -46.9350
   -46.9350 -46.8608 -35.1752 -35.1389 -35.1389 -35.1282 -35.1282 -35.1228
   -35.1192 -35.1192 -35.1163 -35.0585 -35.0585 -35.0465 -35.0465 -35.0385
   -35.0260 -35.0095 -34.9925 -34.9925 -34.9759 -34.9725 -34.9725 -34.9379
   -34.9379 -34.9245 -34.9178 -34.9178 -34.9093 -34.9093 -34.9065 -34.8952
   -34.8773 -34.8549 -34.8549 -34.8523 -34.8317 -34.8260 -34.8260 -34.8205
   -34.8205 -34.8033 -34.8033 -34.7919   9.1199  11.2192  11.2192  11.4062
    12.6246  12.6246  12.7911  13.4247  13.4247  13.5868  13.6920  13.6920
    14.0250  14.0715  14.0715  14.0961  14.4045  14.4148  14.4148  14.7626
    14.7686  14.7686  14.8498  14.8498  15.0658  15.0674  15.0674  15.0757
    15.4108  15.4108  15.4244  15.4670  15.4670  15.6729  15.6896  15.6896
    15.7277  15.7579  15.7579  15.9769  15.9769  16.1637  16.1637  16.2955
    16.4903  16.6227  16.6227  17.0339  17.1562  17.1562  17.2376  17.2376
    17.2708  17.3707  17.5242  17.5242  17.5427  17.7648  17.7957  17.7957
    17.9296  18.0325  18.0325  18.1168  18.1898  18.1898  18.2526  18.2526
    18.3191  18.3191  18.3442  18.3991  18.3991  18.4951  18.4951  18.5624
    18.5644  18.5644  18.6555  18.9875  18.9875  19.0096  20.2391  20.2391
    20.3802

          k = 0.2500 0.2500-0.5000 (  6456 PWs)   bands (ev):

   -86.7301 -68.9239 -68.9202 -68.9177 -68.8844 -68.8696 -68.8624 -68.8602
   -68.8453 -68.8434 -68.8419 -68.8272 -68.8236 -68.8150 -68.8068 -46.9297
   -46.9241 -46.8512 -35.1521 -35.1465 -35.1462 -35.1289 -35.1240 -35.1188
   -35.1038 -35.1016 -35.0864 -35.0795 -35.0655 -35.0503 -35.0454 -35.0307
   -35.0241 -35.0162 -35.0064 -34.9985 -34.9836 -34.9796 -34.9787 -34.9423
   -34.9409 -34.9349 -34.9239 -34.9086 -34.9000 -34.8949 -34.8890 -34.8759
   -34.8759 -34.8610 -34.8557 -34.8516 -34.8322 -34.8260 -34.8237 -34.8192
   -34.8084 -34.8078 -34.8022 -34.7957   9.8552  10.1134  11.8007  11.8014
    11.9467  12.2120  13.2004  13.5172  13.6325  13.7092  13.7925  13.8213
    13.9592  14.0741  14.1843  14.2288  14.3230  14.4102  14.5811  14.6208
    14.6562  14.8656  14.9015  14.9221  14.9593  15.0009  15.0921  15.1268
    15.1797  15.2118  15.3435  15.4023  15.4209  15.4818  15.5553  15.5704
    15.6008  15.6953  15.7542  15.8107  15.8545  15.9134  15.9777  16.2700
    16.4256  16.5274  16.7467  16.8491  17.0371  17.1416  17.3074  17.3687
    17.4265  17.5253  17.5566  17.5851  17.7128  17.7174  17.8418  17.8666
    17.9870  18.0032  18.1062  18.1520  18.1819  18.2043  18.2241  18.2566
    18.2752  18.3270  18.3343  18.3483  18.3867  18.4525  18.4751  18.5125
    18.5374  18.5800  18.6149  18.6326  18.7057  19.8271  19.9868  20.7653
    20.8239

          k = 0.2500-0.5000-0.5000 (  6472 PWs)   bands (ev):

   -86.7301 -68.9212 -68.9209 -68.9182 -68.8851 -68.8689 -68.8672 -68.8587
   -68.8468 -68.8426 -68.8403 -68.8295 -68.8175 -68.8160 -68.8087 -46.9301
   -46.9294 -46.8561 -35.1460 -35.1330 -35.1311 -35.1242 -35.1222 -35.1176
   -35.1043 -35.0954 -35.0869 -35.0670 -35.0468 -35.0466 -35.0449 -35.0405
   -35.0366 -35.0312 -35.0278 -35.0208 -35.0067 -34.9892 -34.9846 -34.9400
   -34.9343 -34.9307 -34.9121 -34.9065 -34.9012 -34.8943 -34.8841 -34.8815
   -34.8699 -34.8635 -34.8545 -34.8481 -34.8322 -34.8321 -34.8265 -34.8212
   -34.8139 -34.8089 -34.8057 -34.7974  10.5642  10.7139  10.7162  11.1688
    12.3868  12.5331  12.5411  13.0871  13.8103  13.9368  14.0423  14.0877
    14.1088  14.2074  14.2702  14.3738  14.4868  14.4969  14.5647  14.5871
    14.7081  14.7147  14.8024  14.8462  14.8584  14.9796  14.9987  15.0827
    15.1428  15.2115  15.2434  15.2976  15.3361  15.4007  15.4525  15.4764
    15.5082  15.6046  15.6138  15.7169  15.7229  15.8114  15.9045  15.9458
    16.0647  16.6119  16.6246  16.7529  17.1353  17.1888  17.4046  17.4353
    17.5874  17.6669  17.6926  17.7164  17.7829  17.8704  17.8777  17.8959
    17.9122  17.9864  18.0242  18.0463  18.0849  18.1654  18.1774  18.2099
    18.2175  18.2524  18.2924  18.2973  18.3111  18.3664  18.3781  18.4464
    18.5139  18.5642  18.6655  19.0998  19.1473  19.1667  19.2190  21.6758
    21.8401

          k =-0.5000-0.5000-0.5000 (  6488 PWs)   bands (ev):

   -86.7301 -68.9205 -68.9205 -68.9176 -68.8861 -68.8695 -68.8695 -68.8572
   -68.8481 -68.8408 -68.8408 -68.8296 -68.8162 -68.8162 -68.8089 -46.9318
   -46.9318 -46.8581 -35.1083 -35.1083 -35.1008 -35.1003 -35.1003 -35.0944
   -35.0909 -35.0909 -35.0818 -35.0777 -35.0777 -35.0746 -35.0742 -35.0742
   -35.0639 -35.0548 -35.0391 -35.0391 -35.0193 -34.9877 -34.9877 -34.9319
   -34.9319 -34.9255 -34.8823 -34.8823 -34.8811 -34.8762 -34.8762 -34.8723
   -34.8687 -34.8631 -34.8631 -34.8494 -34.8410 -34.8369 -34.8369 -34.8267
   -34.8267 -34.8212 -34.8212 -34.8095  11.1904  11.4243  11.4243  11.4598
    11.5149  11.5560  11.5560  12.5414  13.9956  13.9956  14.1814  14.1814
    14.2703  14.5849  14.5849  14.6005  14.6278  14.7032  14.7032  14.7234
    14.7234  14.8354  14.8386  14.8386  14.8665  15.0342  15.0572  15.0572
    15.0884  15.0884  15.2549  15.2777  15.2777  15.3216  15.3353  15.3353
    15.3397  15.3648  15.4492  15.4492  15.4591  15.5508  15.5508  15.6198
    15.6198  16.6403  16.6403  16.6411  17.2864  17.2864  17.4997  17.4997
    17.7345  17.9276  17.9276  17.9503  17.9907  17.9907  18.0190  18.0190
    18.0595  18.1266  18.1266  18.1423  18.1423  18.1697  18.2064  18.2115
    18.2641  18.2641  18.2805  18.2876  18.2876  18.3446  18.3446  18.3836
    18.3858  18.3858  18.4077  18.5351  18.5351  18.5473  18.8211  23.4625
    23.4625

          k =-0.2500 0.0000 0.2500 (  6500 PWs)   bands (ev):

   -86.7302 -68.9306 -68.9170 -68.9163 -68.8832 -68.8715 -68.8571 -68.8539
   -68.8468 -68.8442 -68.8416 -68.8316 -68.8287 -68.8175 -68.8016 -46.9391
   -46.9358 -46.8602 -35.1807 -35.1752 -35.1716 -35.1439 -35.1233 -35.1220
   -35.1055 -35.1031 -35.0812 -35.0642 -35.0572 -35.0520 -35.0348 -35.0147
   -35.0054 -35.0029 -34.9874 -34.9832 -34.9759 -34.9728 -34.9670 -34.9654
   -34.9578 -34.9340 -34.9224 -34.9202 -34.9145 -34.9048 -34.8933 -34.8884
   -34.8811 -34.8671 -34.8607 -34.8521 -34.8429 -34.8324 -34.8273 -34.8200
   -34.8062 -34.8019 -34.8002 -34.7870   8.8256  10.8923  11.1859  12.4122
    12.6417  12.6659  13.0877  13.1912  13.2185  13.3260  13.3815  13.4793
    13.7905  13.9400  13.9845  14.1842  14.3144  14.4552  14.5140  14.7472
    14.7761  14.8261  14.8863  14.9028  15.0222  15.1456  15.1682  15.3476
    15.4032  15.4627  15.5320  15.6084  15.6701  15.7549  15.7849  15.8423
    15.9143  15.9812  16.0256  16.0454  16.1004  16.2108  16.3572  16.4503
    16.5091  16.5711  16.7054  16.8478  16.8979  16.9915  17.1415  17.2055
    17.2543  17.2965  17.3977  17.6183  17.6995  17.7341  17.8589  17.8937
    17.9551  17.9874  18.0626  18.1022  18.1446  18.2350  18.2387  18.2754
    18.2819  18.3125  18.3532  18.3834  18.4547  18.4729  18.5040  18.5199
    18.5531  18.5832  18.9894  19.0098  19.0567  19.4147  19.5212  19.7084
    19.8504

          k = 0.2500-0.2500 0.2500 (  6493 PWs)   bands (ev):

   -86.7302 -68.9283 -68.9181 -68.9164 -68.8838 -68.8714 -68.8615 -68.8536
   -68.8476 -68.8439 -68.8405 -68.8325 -68.8237 -68.8170 -68.8038 -46.9350
   -46.9346 -46.8613 -35.1668 -35.1609 -35.1583 -35.1320 -35.1249 -35.1221
   -35.1149 -35.1031 -35.0744 -35.0616 -35.0588 -35.0508 -35.0430 -35.0381
   -35.0224 -35.0201 -35.0090 -34.9941 -34.9885 -34.9772 -34.9744 -34.9348
   -34.9333 -34.9219 -34.9212 -34.9192 -34.9072 -34.9037 -34.8964 -34.8881
   -34.8785 -34.8663 -34.8570 -34.8558 -34.8383 -34.8240 -34.8231 -34.8195
   -34.8132 -34.8021 -34.8009 -34.7959   9.1234  11.1164  11.2201  11.5200
    12.5734  12.6092  12.8475  13.4828  13.5433  13.5861  13.6354  13.6564
    13.9147  13.9828  14.0883  14.1674  14.2808  14.3722  14.4975  14.6588
    14.7897  14.8274  14.8900  14.9202  14.9804  15.0594  15.1689  15.2896
    15.3108  15.3883  15.4003  15.4836  15.5436  15.6403  15.6587  15.6804
    15.7581  15.7734  15.8304  15.8670  15.9864  16.0551  16.1751  16.2996
    16.5295  16.5693  16.7107  16.8725  16.9102  17.0980  17.1397  17.3715
    17.3836  17.4348  17.4617  17.6193  17.6861  17.7585  17.8514  17.9320
    17.9360  17.9735  18.0300  18.1050  18.1193  18.2269  18.2628  18.2663
    18.2846  18.3319  18.3343  18.3739  18.4438  18.4747  18.4934  18.5292
    18.5348  18.5939  18.6290  18.9650  18.9670  19.0279  20.2021  20.2557
    20.4226

          k = 0.2500-0.2500-0.5000 (  6456 PWs)   bands (ev):

   -86.7301 -68.9244 -68.9209 -68.9163 -68.8843 -68.8713 -68.8645 -68.8539
   -68.8484 -68.8432 -68.8398 -68.8328 -68.8198 -68.8146 -68.8074 -46.9259
   -46.9254 -46.8537 -35.1500 -35.1428 -35.1412 -35.1362 -35.1255 -35.1177
   -35.1033 -35.0904 -35.0843 -35.0769 -35.0696 -35.0584 -35.0539 -35.0413
   -35.0252 -35.0130 -35.0079 -34.9960 -34.9908 -34.9859 -34.9797 -34.9435
   -34.9356 -34.9249 -34.9174 -34.9002 -34.8988 -34.8886 -34.8863 -34.8785
   -34.8724 -34.8633 -34.8554 -34.8515 -34.8398 -34.8295 -34.8234 -34.8175
   -34.8136 -34.8095 -34.8005 -34.7965   9.8559  10.1163  11.7159  11.8723
    11.9079  12.2693  13.1910  13.5050  13.6660  13.7940  13.8402  13.8721
    13.9204  13.9710  14.1531  14.1826  14.2922  14.3892  14.5174  14.5894
    14.7488  14.8517  14.9059  14.9489  14.9714  15.0270  15.1058  15.1424
    15.1898  15.2470  15.3654  15.4036  15.4616  15.4770  15.5474  15.5809
    15.5994  15.6780  15.7157  15.7475  15.8068  15.8849  15.9694  16.3535
    16.4442  16.5996  16.6869  16.8348  16.9855  17.0300  17.3227  17.3427
    17.4241  17.5249  17.5818  17.6618  17.7336  17.7889  17.8275  17.8895
    17.9652  18.0080  18.0693  18.1055  18.1766  18.1955  18.2525  18.2833
    18.3245  18.3436  18.3519  18.3823  18.3962  18.4431  18.4723  18.5259
    18.5394  18.5775  18.6086  18.6229  18.6536  19.8014  19.9642  20.7402
    20.8432

     the Fermi energy is    16.2433 ev

!    total energy              =   -3807.99330248 Ry
     estimated scf accuracy    <          3.6E-09 Ry
     smearing contrib. (-TS)   =       0.01580964 Ry
     internal energy E=F+TS    =   -3808.00911213 Ry

     The total energy is F=E-TS. E is the sum of the following terms:
     one-electron contribution =   -1954.20998813 Ry
     hartree contribution      =    1103.26493715 Ry
     xc contribution           =    -422.84185806 Ry
     ewald contribution        =   -2534.22220308 Ry

     total magnetization       =    36.62 Bohr mag/cell
     absolute magnetization    =    39.10 Bohr mag/cell

     convergence has been achieved in  18 iterations

     negative rho (up, down):  0.000E+00 2.018E-03

     Forces acting on atoms (cartesian axes, Ry/au):

     atom    1 type  2   force =    -0.00159498   -0.00159498   -0.00159498
     atom    2 type  1   force =    -0.00031299    0.00130116    0.00130116
     atom    3 type  1   force =     0.00130116   -0.00031299    0.00130116
     atom    4 type  1   force =     0.00102352    0.00102352   -0.00095948
     atom    5 type  1   force =     0.00130116    0.00130116   -0.00031299
     atom    6 type  1   force =     0.00102352   -0.00095948    0.00102352
     atom    7 type  1   force =    -0.00095948    0.00102352    0.00102352
     atom    8 type  1   force =    -0.00012418   -0.00012418   -0.00012418
     atom    9 type  1   force =    -0.00043689   -0.00012684   -0.00012684
     atom   10 type  1   force =    -0.00012684   -0.00043689   -0.00012684
     atom   11 type  1   force =    -0.00008588   -0.00008588    0.00023076
     atom   12 type  1   force =    -0.00012684   -0.00012684   -0.00043689
     atom   13 type  1   force =    -0.00008588    0.00023076   -0.00008588
     atom   14 type  1   force =     0.00023076   -0.00008588   -0.00008588
     atom   15 type  1   force =    -0.00102615   -0.00102615   -0.00102615

     Total force =     0.005587     Total SCF correction =     0.000058
     Energy error            =      3.8E-05 Ry
     Gradient error          =      1.6E-03 Ry/Bohr

     number of scf cycles    =   8
     number of bfgs steps    =   7

     energy             old  =   -3807.9932647215 Ry
     energy             new  =   -3807.9933024833 Ry

     CASE: energy            _new < energy            _old

     new trust radius        =       0.0046277675 bohr
     new conv_thr            =       0.0000000100 Ry


ATOMIC_POSITIONS (crystal)
Ni               0.0035450459        0.0035450459        0.0035450459
Fe               0.4905541389        0.0087027557        0.0087027557
Fe               0.0087027557        0.4905541389        0.0087027557
Fe               0.4947171896        0.4947171896        0.0081048622
Fe               0.0087027557        0.0087027557        0.4905541389
Fe               0.4947171896        0.0081048622        0.4947171896
Fe               0.0081048622        0.4947171896        0.4947171896
Fe               0.4887379670        0.4887379670        0.4887379670
Fe               0.7543446910        0.2483735518        0.2483735518
Fe               0.2483735518        0.7543446910        0.2483735518
Fe               0.7481642050        0.7481642050        0.2515747404
Fe               0.2483735518        0.2483735518        0.7543446910
Fe               0.7481642050        0.2515747404        0.7481642050
Fe               0.2515747404        0.7481642050        0.7481642050
Fe               0.7532231503        0.7532231503        0.7532231503



     Writing config-only to output data dir ./outdir/fe15_ni1_end.save/ :
     XML data file
     NEW-OLD atomic charge density approx. for the potential

     Check: negative core charge=   -0.000004

     negative rho (up, down):  0.000E+00 2.135E-03
     Generating pointlists ...

     total cpu time spent up to now is     4408.5 secs

     per-process dynamical memory:   178.6 Mb

     Self-consistent Calculation

     iteration #  1     ecut=    45.00 Ry     beta= 0.10
     Davidson diagonalization with overlap
     ethr =  1.00E-06,  avg # of iterations =  6.3

     negative rho (up, down):  0.000E+00 2.136E-03

     total cpu time spent up to now is     4449.7 secs

     total energy              =   -3807.99342572 Ry
     estimated scf accuracy    <       0.00106523 Ry

     total magnetization       =    36.62 Bohr mag/cell
     absolute magnetization    =    39.10 Bohr mag/cell

     iteration #  2     ecut=    45.00 Ry     beta= 0.10
     Davidson diagonalization with overlap
     ethr =  4.40E-07,  avg # of iterations =  2.1

     negative rho (up, down):  0.000E+00 2.136E-03

     total cpu time spent up to now is     4472.3 secs

     total energy              =   -3807.99304530 Ry
     estimated scf accuracy    <       0.01537312 Ry

     total magnetization       =    36.62 Bohr mag/cell
     absolute magnetization    =    39.12 Bohr mag/cell

     iteration #  3     ecut=    45.00 Ry     beta= 0.10
     Davidson diagonalization with overlap
     ethr =  4.40E-07,  avg # of iterations =  2.0

     negative rho (up, down):  0.000E+00 2.135E-03

     total cpu time spent up to now is     4495.2 secs

     total energy              =   -3807.99323429 Ry
     estimated scf accuracy    <       0.00026129 Ry

     total magnetization       =    36.62 Bohr mag/cell
     absolute magnetization    =    39.10 Bohr mag/cell

     iteration #  4     ecut=    45.00 Ry     beta= 0.10
     Davidson diagonalization with overlap
     ethr =  1.08E-07,  avg # of iterations =  1.7

     negative rho (up, down):  0.000E+00 2.131E-03

     total cpu time spent up to now is     4515.6 secs

     total energy              =   -3807.99326425 Ry
     estimated scf accuracy    <       0.00001546 Ry

     total magnetization       =    36.62 Bohr mag/cell
     absolute magnetization    =    39.10 Bohr mag/cell

     iteration #  5     ecut=    45.00 Ry     beta= 0.10
     Davidson diagonalization with overlap
     ethr =  6.39E-09,  avg # of iterations =  2.3

     negative rho (up, down):  0.000E+00 2.125E-03

     total cpu time spent up to now is     4537.6 secs

     total energy              =   -3807.99327581 Ry
     estimated scf accuracy    <       0.00001223 Ry

     total magnetization       =    36.62 Bohr mag/cell
     absolute magnetization    =    39.10 Bohr mag/cell

     iteration #  6     ecut=    45.00 Ry     beta= 0.10
     Davidson diagonalization with overlap
     ethr =  5.06E-09,  avg # of iterations =  2.2

     negative rho (up, down):  0.000E+00 2.122E-03

     total cpu time spent up to now is     4560.7 secs

     total energy              =   -3807.99330021 Ry
     estimated scf accuracy    <       0.00006608 Ry

     total magnetization       =    36.62 Bohr mag/cell
     absolute magnetization    =    39.10 Bohr mag/cell

     iteration #  7     ecut=    45.00 Ry     beta= 0.10
     Davidson diagonalization with overlap
     ethr =  5.06E-09,  avg # of iterations =  2.0

     negative rho (up, down):  0.000E+00 2.122E-03

     total cpu time spent up to now is     4583.2 secs

     total energy              =   -3807.99331109 Ry
     estimated scf accuracy    <       0.00000243 Ry

     total magnetization       =    36.62 Bohr mag/cell
     absolute magnetization    =    39.10 Bohr mag/cell

     iteration #  8     ecut=    45.00 Ry     beta= 0.10
     Davidson diagonalization with overlap
     ethr =  1.01E-09,  avg # of iterations =  1.5

     negative rho (up, down):  0.000E+00 2.123E-03

     total cpu time spent up to now is     4603.3 secs

     total energy              =   -3807.99331976 Ry
     estimated scf accuracy    <       0.00000066 Ry

     total magnetization       =    36.62 Bohr mag/cell
     absolute magnetization    =    39.10 Bohr mag/cell

     iteration #  9     ecut=    45.00 Ry     beta= 0.10
     Davidson diagonalization with overlap
     ethr =  2.72E-10,  avg # of iterations =  1.9

     negative rho (up, down):  0.000E+00 2.126E-03

     total cpu time spent up to now is     4623.7 secs

     total energy              =   -3807.99332687 Ry
     estimated scf accuracy    <       0.00000062 Ry

     total magnetization       =    36.62 Bohr mag/cell
     absolute magnetization    =    39.10 Bohr mag/cell

     iteration # 10     ecut=    45.00 Ry     beta= 0.10
     Davidson diagonalization with overlap
     ethr =  2.54E-10,  avg # of iterations =  1.5

     negative rho (up, down):  0.000E+00 2.127E-03

     total cpu time spent up to now is     4644.5 secs

     total energy              =   -3807.99333274 Ry
     estimated scf accuracy    <       0.00000006 Ry

     total magnetization       =    36.62 Bohr mag/cell
     absolute magnetization    =    39.10 Bohr mag/cell

     iteration # 11     ecut=    45.00 Ry     beta= 0.10
     Davidson diagonalization with overlap
     ethr =  2.67E-11,  avg # of iterations =  4.3

     negative rho (up, down):  0.000E+00 2.127E-03

     total cpu time spent up to now is     4672.1 secs

     total energy              =   -3807.99333899 Ry
     estimated scf accuracy    <       0.00000280 Ry

     total magnetization       =    36.62 Bohr mag/cell
     absolute magnetization    =    39.10 Bohr mag/cell

     iteration # 12     ecut=    45.00 Ry     beta= 0.10
     Davidson diagonalization with overlap
     ethr =  2.67E-11,  avg # of iterations =  2.7

     negative rho (up, down):  0.000E+00 2.128E-03

     total cpu time spent up to now is     4696.5 secs

     total energy              =   -3807.99334285 Ry
     estimated scf accuracy    <       0.00000006 Ry

     total magnetization       =    36.62 Bohr mag/cell
     absolute magnetization    =    39.10 Bohr mag/cell

     iteration # 13     ecut=    45.00 Ry     beta= 0.10
     Davidson diagonalization with overlap
     ethr =  2.31E-11,  avg # of iterations =  2.0

     negative rho (up, down):  0.000E+00 2.128E-03

     total cpu time spent up to now is     4719.2 secs

     total energy              =   -3807.99334614 Ry
     estimated scf accuracy    <       0.00000070 Ry

     total magnetization       =    36.62 Bohr mag/cell
     absolute magnetization    =    39.10 Bohr mag/cell

     iteration # 14     ecut=    45.00 Ry     beta= 0.10
     Davidson diagonalization with overlap
     ethr =  2.31E-11,  avg # of iterations =  3.0

     negative rho (up, down):  0.000E+00 2.128E-03

     total cpu time spent up to now is     4744.0 secs

     total energy              =   -3807.99334968 Ry
     estimated scf accuracy    <       0.00000672 Ry

     total magnetization       =    36.62 Bohr mag/cell
     absolute magnetization    =    39.10 Bohr mag/cell

     iteration # 15     ecut=    45.00 Ry     beta= 0.10
     Davidson diagonalization with overlap
     ethr =  2.31E-11,  avg # of iterations =  3.5

     negative rho (up, down):  0.000E+00 2.131E-03

     total cpu time spent up to now is     4770.0 secs

     total energy              =   -3807.99335316 Ry
     estimated scf accuracy    <       0.00002143 Ry

     total magnetization       =    36.62 Bohr mag/cell
     absolute magnetization    =    39.10 Bohr mag/cell

     iteration # 16     ecut=    45.00 Ry     beta= 0.10
     Davidson diagonalization with overlap
     ethr =  2.31E-11,  avg # of iterations =  2.0

     negative rho (up, down):  0.000E+00 2.132E-03

     total cpu time spent up to now is     4793.4 secs

     total energy              =   -3807.99335551 Ry
     estimated scf accuracy    <       0.00002213 Ry

     total magnetization       =    36.62 Bohr mag/cell
     absolute magnetization    =    39.10 Bohr mag/cell

     iteration # 17     ecut=    45.00 Ry     beta= 0.10
     Davidson diagonalization with overlap
     ethr =  2.31E-11,  avg # of iterations =  2.4

     negative rho (up, down):  0.000E+00 2.132E-03

     total cpu time spent up to now is     4817.4 secs

     total energy              =   -3807.99335685 Ry
     estimated scf accuracy    <       0.00001265 Ry

     total magnetization       =    36.62 Bohr mag/cell
     absolute magnetization    =    39.10 Bohr mag/cell

     iteration # 18     ecut=    45.00 Ry     beta= 0.10
     Davidson diagonalization with overlap
     ethr =  2.31E-11,  avg # of iterations =  3.0

     negative rho (up, down):  0.000E+00 2.132E-03

     total cpu time spent up to now is     4842.1 secs

     total energy              =   -3807.99335759 Ry
     estimated scf accuracy    <       0.00000475 Ry

     total magnetization       =    36.62 Bohr mag/cell
     absolute magnetization    =    39.10 Bohr mag/cell

     iteration # 19     ecut=    45.00 Ry     beta= 0.10
     Davidson diagonalization with overlap
     ethr =  2.31E-11,  avg # of iterations =  2.1

     negative rho (up, down):  0.000E+00 2.132E-03

     total cpu time spent up to now is     4865.2 secs

     total energy              =   -3807.99335801 Ry
     estimated scf accuracy    <       0.00000188 Ry

     total magnetization       =    36.62 Bohr mag/cell
     absolute magnetization    =    39.10 Bohr mag/cell

     iteration # 20     ecut=    45.00 Ry     beta= 0.10
     Davidson diagonalization with overlap
     ethr =  2.31E-11,  avg # of iterations =  2.1

     negative rho (up, down):  0.000E+00 2.133E-03

     total cpu time spent up to now is     4888.0 secs

     total energy              =   -3807.99335825 Ry
     estimated scf accuracy    <       0.00000048 Ry

     total magnetization       =    36.62 Bohr mag/cell
     absolute magnetization    =    39.10 Bohr mag/cell

     iteration # 21     ecut=    45.00 Ry     beta= 0.10
     Davidson diagonalization with overlap
     ethr =  2.31E-11,  avg # of iterations =  3.8

     negative rho (up, down):  0.000E+00 2.133E-03

     total cpu time spent up to now is     4914.8 secs

     total energy              =   -3807.99335822 Ry
     estimated scf accuracy    <       0.00000221 Ry

     total magnetization       =    36.62 Bohr mag/cell
     absolute magnetization    =    39.10 Bohr mag/cell

     iteration # 22     ecut=    45.00 Ry     beta= 0.10
     Davidson diagonalization with overlap
     ethr =  2.31E-11,  avg # of iterations =  2.5

     negative rho (up, down):  0.000E+00 2.134E-03

     total cpu time spent up to now is     4938.5 secs

     total energy              =   -3807.99335830 Ry
     estimated scf accuracy    <       0.00000013 Ry

     total magnetization       =    36.62 Bohr mag/cell
     absolute magnetization    =    39.10 Bohr mag/cell

     iteration # 23     ecut=    45.00 Ry     beta= 0.10
     Davidson diagonalization with overlap
     ethr =  2.31E-11,  avg # of iterations =  2.1

     negative rho (up, down):  0.000E+00 2.134E-03

     total cpu time spent up to now is     4961.4 secs

     total energy              =   -3807.99335844 Ry
     estimated scf accuracy    <       0.00000009 Ry

     total magnetization       =    36.62 Bohr mag/cell
     absolute magnetization    =    39.10 Bohr mag/cell

     iteration # 24     ecut=    45.00 Ry     beta= 0.10
     Davidson diagonalization with overlap
     ethr =  2.31E-11,  avg # of iterations =  1.9

     negative rho (up, down):  0.000E+00 2.134E-03

     Magnetic moment per site  (integrated on atomic sphere of radius R)
     atom   1 (R=0.176)  charge= 16.5661  magn=  0.9594
     atom   2 (R=0.176)  charge= 14.2971  magn=  2.6092
     atom   3 (R=0.176)  charge= 14.2971  magn=  2.6092
     atom   4 (R=0.176)  charge= 14.2914  magn=  2.6547
     atom   5 (R=0.176)  charge= 14.2971  magn=  2.6092
     atom   6 (R=0.176)  charge= 14.2914  magn=  2.6547
     atom   7 (R=0.176)  charge= 14.2914  magn=  2.6547
     atom   8 (R=0.176)  charge= 14.2812  magn=  2.6959
     atom   9 (R=0.176)  charge= 14.3636  magn=  2.4428
     atom  10 (R=0.176)  charge= 14.3636  magn=  2.4428
     atom  11 (R=0.176)  charge= 14.2961  magn=  2.6595
     atom  12 (R=0.176)  charge= 14.3636  magn=  2.4428
     atom  13 (R=0.176)  charge= 14.2961  magn=  2.6595
     atom  14 (R=0.176)  charge= 14.2961  magn=  2.6595
     atom  15 (R=0.176)  charge= 14.2485  magn=  2.7910

     total cpu time spent up to now is     4982.4 secs

     End of self-consistent calculation

 ------ SPIN UP ------------


          k = 0.0000 0.0000 0.0000 (  6451 PWs)   bands (ev):

   -88.0692 -72.3807 -72.2603 -72.2497 -72.2497 -72.2014 -72.1817 -72.1817
   -72.1775 -72.1051 -72.1043 -72.1043 -71.9096 -71.9096 -71.9038 -48.2728
   -48.2728 -48.1616 -38.4816 -38.3974 -38.3974 -38.3425 -38.3400 -38.3400
   -38.3233 -38.2889 -38.2889 -38.2808 -38.2697 -38.2586 -38.2533 -38.2533
   -38.2256 -38.2256 -38.1963 -38.1722 -38.1722 -38.1544 -38.1544 -38.1250
   -38.1250 -38.1067 -38.1032 -38.0939 -38.0939 -38.0672 -38.0613 -38.0613
   -38.0543 -38.0543 -38.0489 -37.9747 -37.9212 -37.9212 -37.8650 -37.8650
   -37.8077 -37.8045 -37.8045 -37.8044   8.0823  11.4044  11.4202  11.4202
    11.4602  11.5120  11.5120  11.5491  11.5491  11.6721  11.7494  11.7494
    12.0834  12.0834  12.4147  12.7205  12.7292  12.7292  12.8147  12.8147
    12.8348  12.9552  12.9552  12.9899  13.1669  13.1669  13.2211  13.2387
    13.4342  13.4342  13.4734  13.6047  13.6047  13.7954  13.8075  13.8075
    14.0448  14.0448  14.0659  14.1378  14.1406  14.1406  14.1788  14.1788
    14.2451  14.5482  14.5678  14.5678  14.7376  14.8288  14.8288  14.8504
    14.8504  14.9419  15.0078  15.0139  15.0139  15.0794  15.0794  15.1334
    15.1334  15.1976  15.1976  15.2068  15.2068  15.2239  15.2441  15.4568
    15.5802  15.5802  15.9951  15.9951  16.0434  16.0434  16.1333  16.1333
    16.1549  16.1783  16.2969  16.2969  16.3508  16.5645  16.6113  16.6113
    16.6634

          k = 0.0000 0.0000 0.2500 (  6495 PWs)   bands (ev):

   -88.0693 -72.3807 -72.2592 -72.2510 -72.2498 -72.2015 -72.1818 -72.1814
   -72.1777 -72.1055 -72.1045 -72.1041 -71.9097 -71.9089 -71.9044 -48.2859
   -48.2816 -48.1723 -38.4828 -38.3980 -38.3961 -38.3479 -38.3413 -38.3400
   -38.3222 -38.2946 -38.2874 -38.2808 -38.2729 -38.2618 -38.2537 -38.2458
   -38.2293 -38.2273 -38.1999 -38.1861 -38.1844 -38.1673 -38.1464 -38.1434
   -38.1270 -38.1175 -38.1038 -38.0956 -38.0886 -38.0630 -38.0588 -38.0547
   -38.0508 -38.0398 -38.0395 -37.9709 -37.9316 -37.9272 -37.8622 -37.8599
   -37.8181 -37.8161 -37.8130 -37.8111   8.3823  10.5368  11.5061  11.5089
    11.5371  11.5809  11.6004  11.6303  11.6963  11.7777  11.8269  11.8686
    12.1376  12.1775  12.4386  12.6391  12.6762  12.6845  12.7438  12.7691
    12.8653  12.8844  12.9311  13.1059  13.1063  13.1509  13.2057  13.2511
    13.3323  13.5734  13.5770  13.6039  13.7283  13.7400  13.7631  13.7860
    13.8168  13.8519  13.9056  14.0842  14.0910  14.2792  14.3101  14.3569
    14.3807  14.4659  14.5356  14.5791  14.6056  14.6142  14.6449  14.7178
    14.7847  14.8609  14.9299  14.9554  15.0215  15.0252  15.0785  15.1023
    15.1087  15.1335  15.1565  15.1571  15.1822  15.1886  15.2309  15.2938
    15.3171  15.4692  15.5236  15.5308  15.5996  15.9000  16.0512  16.0787
    16.1043  16.1635  16.2797  16.2818  16.4387  16.6401  16.7881  16.8631
    17.0135

          k = 0.0000 0.0000-0.5000 (  6480 PWs)   bands (ev):

   -88.0693 -72.3807 -72.2574 -72.2529 -72.2498 -72.2016 -72.1818 -72.1809
   -72.1782 -72.1057 -72.1045 -72.1038 -71.9097 -71.9077 -71.9056 -48.2859
   -48.2769 -48.1695 -38.4806 -38.3929 -38.3869 -38.3507 -38.3363 -38.3345
   -38.3008 -38.2987 -38.2960 -38.2901 -38.2738 -38.2585 -38.2524 -38.2386
   -38.2359 -38.2318 -38.2047 -38.1914 -38.1910 -38.1866 -38.1520 -38.1439
   -38.1385 -38.1171 -38.0987 -38.0968 -38.0849 -38.0627 -38.0547 -38.0497
   -38.0493 -38.0283 -38.0251 -37.9637 -37.9387 -37.9273 -37.8556 -37.8477
   -37.8273 -37.8255 -37.8146 -37.8114   9.1385   9.4045  11.6278  11.6426
    11.6450  11.7103  11.7688  11.7941  11.8418  11.8790  11.9438  12.0657
    12.0721  12.2023  12.3235  12.3556  12.3952  12.6178  12.6321  12.6432
    12.9696  12.9730  13.2202  13.2293  13.2846  13.2869  13.2875  13.4205
    13.4468  13.4832  13.5649  13.5979  13.6131  13.6345  13.6565  13.7217
    13.7496  13.7809  13.8064  13.9408  13.9551  14.1282  14.1815  14.2030
    14.2505  14.3050  14.3840  14.4682  14.5098  14.5382  14.6184  14.6486
    14.6967  14.7617  14.7794  14.9178  15.0139  15.0541  15.0707  15.0811
    15.0950  15.1001  15.1559  15.1741  15.1809  15.2037  15.2117  15.2571
    15.4034  15.5170  15.6443  15.6616  15.6759  15.7402  15.7636  15.8203
    15.9097  16.2445  16.4334  16.4615  16.5427  16.6037  16.6629  16.7222
    16.7403

          k = 0.0000 0.2500 0.2500 (  6500 PWs)   bands (ev):

   -88.0693 -72.3807 -72.2579 -72.2518 -72.2504 -72.2016 -72.1817 -72.1809
   -72.1783 -72.1054 -72.1047 -72.1040 -71.9094 -71.9086 -71.9052 -48.2866
   -48.2808 -48.1759 -38.4821 -38.3942 -38.3910 -38.3498 -38.3376 -38.3363
   -38.3167 -38.2999 -38.2862 -38.2862 -38.2808 -38.2596 -38.2573 -38.2384
   -38.2371 -38.2263 -38.1960 -38.1948 -38.1834 -38.1636 -38.1492 -38.1426
   -38.1336 -38.1254 -38.1112 -38.1027 -38.0858 -38.0625 -38.0613 -38.0488
   -38.0452 -38.0416 -38.0377 -37.9635 -37.9326 -37.9295 -37.8555 -37.8501
   -37.8270 -37.8162 -37.8162 -37.8116   8.6818  10.6518  10.8043  11.4214
    11.6895  11.6914  11.7145  11.7383  11.8167  11.9185  11.9571  12.0047
    12.2449  12.2492  12.4926  12.5551  12.6068  12.6988  12.7863  12.8178
    12.8651  12.9175  12.9671  12.9679  13.0222  13.0366  13.2179  13.2791
    13.3997  13.4096  13.5113  13.5819  13.5913  13.6827  13.7076  13.7995
    13.8075  13.9062  13.9276  14.0463  14.1113  14.2202  14.2453  14.2970
    14.3240  14.3396  14.4101  14.4339  14.5257  14.5655  14.6336  14.6370
    14.6850  14.7398  14.7889  14.8167  14.8996  14.9627  15.0140  15.0362
    15.0704  15.0803  15.1103  15.1735  15.1953  15.2156  15.2678  15.3494
    15.3527  15.3964  15.4020  15.4814  15.5165  15.5224  15.5725  15.7238
    15.8029  15.8087  16.0772  16.5278  16.5530  17.6038  17.6533  17.8375
    17.9898

          k = 0.0000 0.2500-0.5000 (  6452 PWs)   bands (ev):

   -88.0692 -72.3806 -72.2564 -72.2529 -72.2506 -72.2017 -72.1816 -72.1805
   -72.1785 -72.1057 -72.1046 -72.1037 -71.9091 -71.9076 -71.9062 -48.2767
   -48.2705 -48.1620 -38.4780 -38.3877 -38.3830 -38.3509 -38.3343 -38.3334
   -38.3069 -38.2989 -38.2934 -38.2877 -38.2782 -38.2618 -38.2526 -38.2422
   -38.2355 -38.2250 -38.1954 -38.1870 -38.1846 -38.1662 -38.1494 -38.1451
   -38.1292 -38.1197 -38.1032 -38.0965 -38.0831 -38.0677 -38.0608 -38.0541
   -38.0479 -38.0357 -38.0330 -37.9538 -37.9366 -37.9285 -37.8476 -37.8396
   -37.8272 -37.8226 -37.8139 -37.8097   9.4110   9.6574  11.0631  11.2433
    11.8416  11.8753  11.9672  11.9991  12.0235  12.0319  12.0696  12.1605
    12.1844  12.2892  12.3482  12.4250  12.4647  12.6461  12.7391  12.7500
    12.9673  12.9936  13.0641  13.0957  13.1267  13.1348  13.2001  13.2879
    13.3557  13.4060  13.5317  13.5491  13.5724  13.6045  13.6451  13.6623
    13.6868  13.7722  13.7899  13.8469  13.9149  13.9569  14.0083  14.1022
    14.1555  14.3246  14.4432  14.4607  14.4735  14.5155  14.6371  14.6608
    14.6940  14.7197  14.7531  14.7677  14.8096  14.8680  14.9121  15.0000
    15.0430  15.0575  15.1140  15.1539  15.1656  15.2035  15.2262  15.2337
    15.2976  15.3571  15.3756  15.3996  15.4698  15.4763  15.5228  15.6452
    15.7640  15.9553  16.0966  17.0266  17.0650  17.1480  17.2246  18.7257
    18.8138

          k = 0.0000-0.5000-0.5000 (  6496 PWs)   bands (ev):

   -88.0693 -72.3806 -72.2549 -72.2536 -72.2515 -72.2019 -72.1816 -72.1799
   -72.1792 -72.1057 -72.1049 -72.1036 -71.9080 -71.9077 -71.9073 -48.2881
   -48.2802 -48.1724 -38.4776 -38.3858 -38.3776 -38.3553 -38.3335 -38.3328
   -38.3177 -38.2973 -38.2963 -38.2901 -38.2879 -38.2695 -38.2546 -38.2424
   -38.2380 -38.2251 -38.1900 -38.1871 -38.1802 -38.1509 -38.1475 -38.1421
   -38.1350 -38.1100 -38.1060 -38.0993 -38.0961 -38.0868 -38.0731 -38.0632
   -38.0548 -38.0423 -38.0403 -37.9459 -37.9396 -37.9332 -37.8419 -37.8327
   -37.8321 -37.8209 -37.8209 -37.8096  10.0890  10.1587  10.2101  10.6500
    12.0552  12.0765  12.1090  12.1497  12.2216  12.2397  12.2452  12.3035
    12.3555  12.3804  12.5333  12.5798  12.6348  12.6357  12.6676  12.6804
    12.8265  12.8770  12.8787  12.8981  12.9521  12.9905  13.0150  13.2441
    13.3346  13.3769  13.4323  13.4486  13.5240  13.5240  13.5332  13.5589
    13.6036  13.6869  13.7146  13.7280  13.7718  13.7740  13.8718  14.0648
    14.1245  14.3006  14.3164  14.4189  14.4886  14.5769  14.5957  14.6385
    14.6852  14.6973  14.7312  14.7423  14.7914  14.8089  14.8347  14.9147
    14.9206  14.9609  15.0059  15.0381  15.0541  15.0947  15.1326  15.1827
    15.1915  15.2070  15.2330  15.3092  15.3824  15.4208  15.4454  15.6653
    15.7787  16.0469  16.2038  17.8326  17.8838  17.9706  18.0611  18.1349
    18.2857

          k = 0.2500 0.2500 0.2500 (  6493 PWs)   bands (ev):

   -88.0693 -72.3806 -72.2567 -72.2516 -72.2516 -72.2017 -72.1809 -72.1809
   -72.1791 -72.1048 -72.1047 -72.1047 -71.9085 -71.9085 -71.9060 -48.2836
   -48.2836 -48.1718 -38.4800 -38.3874 -38.3874 -38.3511 -38.3331 -38.3331
   -38.3091 -38.3010 -38.2889 -38.2889 -38.2866 -38.2563 -38.2563 -38.2383
   -38.2383 -38.2352 -38.1935 -38.1935 -38.1852 -38.1575 -38.1575 -38.1389
   -38.1389 -38.1276 -38.1148 -38.0880 -38.0880 -38.0670 -38.0670 -38.0611
   -38.0400 -38.0378 -38.0378 -37.9578 -37.9331 -37.9331 -37.8454 -37.8454
   -37.8330 -37.8153 -37.8149 -37.8149   8.9738  10.8711  10.8711  11.0714
    11.6212  11.6212  11.6907  11.9044  11.9044  12.0192  12.1419  12.1419
    12.4035  12.4035  12.5313  12.5562  12.6047  12.7166  12.7166  12.8360
    12.8360  12.9184  12.9615  13.0140  13.0140  13.1185  13.1185  13.2916
    13.3570  13.3595  13.3595  13.4263  13.4263  13.5990  13.5990  13.7224
    13.7224  13.7376  13.8038  13.9071  13.9071  13.9768  14.1524  14.1524
    14.2399  14.2399  14.3479  14.5466  14.5466  14.5539  14.6027  14.6919
    14.6919  14.7721  14.8202  14.8418  14.8418  14.9098  14.9783  14.9783
    15.0519  15.0579  15.0579  15.1667  15.1667  15.2043  15.2049  15.2049
    15.2254  15.3207  15.3207  15.5307  15.5307  15.6105  15.6900  15.6900
    15.7345  15.7345  15.8636  16.5741  16.5741  16.6446  18.5276  18.5276
    18.7193

          k = 0.2500 0.2500-0.5000 (  6456 PWs)   bands (ev):

   -88.0692 -72.3806 -72.2556 -72.2527 -72.2515 -72.2018 -72.1809 -72.1808
   -72.1790 -72.1054 -72.1046 -72.1040 -71.9085 -71.9077 -71.9067 -48.2781
   -48.2724 -48.1619 -38.4766 -38.3834 -38.3797 -38.3510 -38.3325 -38.3311
   -38.3024 -38.2982 -38.2949 -38.2921 -38.2810 -38.2589 -38.2579 -38.2384
   -38.2346 -38.2294 -38.1919 -38.1895 -38.1794 -38.1587 -38.1518 -38.1485
   -38.1279 -38.1245 -38.1073 -38.1011 -38.0988 -38.0686 -38.0590 -38.0570
   -38.0406 -38.0391 -38.0290 -37.9512 -37.9382 -37.9320 -37.8464 -37.8373
   -37.8309 -37.8212 -37.8131 -37.8112   9.6859   9.9149  11.2932  11.3109
    11.3778  11.5778  12.1369  12.1551  12.1900  12.1977  12.2021  12.2239
    12.3054  12.3565  12.4065  12.5244  12.5582  12.6737  12.7539  12.8548
    12.9597  12.9914  13.0042  13.0421  13.0442  13.1080  13.1573  13.1864
    13.2364  13.2840  13.3749  13.4373  13.4500  13.4716  13.5069  13.5322
    13.5568  13.5751  13.5795  13.6254  13.7020  13.7737  13.8053  13.9512
    14.0799  14.2091  14.3447  14.3976  14.5639  14.6083  14.6305  14.6973
    14.7264  14.7342  14.7696  14.8193  14.8419  14.9234  14.9700  15.0315
    15.0452  15.0758  15.1201  15.1271  15.1670  15.1943  15.1978  15.2448
    15.2527  15.3306  15.3771  15.4178  15.4656  15.7077  15.7082  15.7682
    15.8200  15.8430  15.9080  15.9955  16.0509  17.7071  17.8984  19.2298
    19.2479

          k = 0.2500-0.5000-0.5000 (  6472 PWs)   bands (ev):

   -88.0692 -72.3805 -72.2544 -72.2534 -72.2520 -72.2019 -72.1812 -72.1800
   -72.1795 -72.1054 -72.1048 -72.1039 -71.9082 -71.9074 -71.9073 -48.2785
   -48.2778 -48.1669 -38.4753 -38.3782 -38.3737 -38.3525 -38.3314 -38.3306
   -38.3092 -38.2951 -38.2914 -38.2876 -38.2838 -38.2637 -38.2567 -38.2384
   -38.2371 -38.2286 -38.1888 -38.1864 -38.1729 -38.1537 -38.1535 -38.1418
   -38.1399 -38.1281 -38.1252 -38.1182 -38.1116 -38.0615 -38.0555 -38.0499
   -38.0429 -38.0333 -38.0309 -37.9479 -37.9424 -37.9372 -37.8445 -37.8368
   -37.8357 -37.8208 -37.8161 -37.8131  10.3536  10.4316  10.4739  10.8637
    11.8009  11.9212  11.9282  12.1660  12.2474  12.2714  12.3407  12.5559
    12.5582  12.6068  12.6239  12.6712  12.6783  12.7045  12.7075  12.7773
    12.8086  12.8679  12.8691  12.9047  12.9442  12.9694  13.0116  13.1090
    13.1418  13.1908  13.1966  13.2991  13.3099  13.3244  13.3590  13.3709
    13.4144  13.4356  13.4533  13.5434  13.5671  13.5805  13.6401  13.6724
    13.7706  14.2145  14.2161  14.2803  14.6923  14.6929  14.7268  14.8014
    14.8127  14.8498  14.8764  14.8828  14.9496  14.9528  14.9976  15.0318
    15.0574  15.1147  15.1299  15.1341  15.1770  15.2012  15.2067  15.2152
    15.2457  15.2533  15.3008  15.3556  15.3886  15.4208  15.4867  15.6105
    15.6556  15.8184  15.9425  16.6959  16.7396  16.7517  16.8736  20.1742
    20.3103

          k =-0.5000-0.5000-0.5000 (  6488 PWs)   bands (ev):

   -88.0692 -72.3805 -72.2534 -72.2534 -72.2530 -72.2020 -72.1805 -72.1801
   -72.1801 -72.1048 -72.1048 -72.1045 -71.9083 -71.9072 -71.9072 -48.2802
   -48.2802 -48.1689 -38.4734 -38.3689 -38.3689 -38.3525 -38.3280 -38.3280
   -38.3096 -38.2896 -38.2896 -38.2826 -38.2810 -38.2552 -38.2552 -38.2412
   -38.2363 -38.2363 -38.1933 -38.1933 -38.1616 -38.1556 -38.1556 -38.1492
   -38.1388 -38.1373 -38.1373 -38.1324 -38.1324 -38.0451 -38.0416 -38.0416
   -38.0395 -38.0284 -38.0284 -37.9471 -37.9471 -37.9452 -37.8461 -37.8385
   -37.8385 -37.8239 -37.8183 -37.8183  10.9668  11.1070  11.1070  11.1633
    11.1884  11.2058  11.2058  12.0635  12.6479  12.6479  12.6855  12.6855
    12.7122  12.7130  12.7209  12.7209  12.7285  12.7821  12.7821  12.8130
    12.8495  12.8495  12.9015  12.9015  12.9468  12.9468  12.9803  13.0365
    13.0365  13.0842  13.1112  13.1366  13.1366  13.1371  13.1603  13.1809
    13.1809  13.1981  13.1981  13.2040  13.2212  13.2564  13.2564  13.5703
    13.5703  14.1627  14.1806  14.1806  14.7547  14.7547  14.8660  14.8660
    14.8755  14.9339  14.9339  14.9743  14.9743  15.0122  15.0135  15.0819
    15.0819  15.1347  15.1426  15.1426  15.2297  15.3300  15.3300  15.3691
    15.3691  15.3852  15.4473  15.4473  15.5244  15.5886  15.5886  15.7086
    15.7086  15.7493  15.8257  16.0402  16.0402  16.0570  16.1331  22.3745
    22.3745

          k =-0.2500 0.0000 0.2500 (  6500 PWs)   bands (ev):

   -88.0693 -72.3807 -72.2582 -72.2512 -72.2505 -72.2016 -72.1817 -72.1813
   -72.1779 -72.1057 -72.1046 -72.1038 -71.9092 -71.9089 -71.9050 -48.2878
   -48.2844 -48.1711 -38.4807 -38.3928 -38.3924 -38.3508 -38.3400 -38.3386
   -38.3139 -38.2996 -38.2887 -38.2881 -38.2731 -38.2641 -38.2554 -38.2454
   -38.2346 -38.2297 -38.2027 -38.1885 -38.1860 -38.1554 -38.1511 -38.1417
   -38.1294 -38.1148 -38.1037 -38.0998 -38.0862 -38.0665 -38.0627 -38.0605
   -38.0492 -38.0400 -38.0393 -37.9647 -37.9335 -37.9297 -37.8596 -37.8511
   -37.8218 -37.8184 -37.8142 -37.8088   8.6822  10.6163  10.8451  11.4134
    11.6873  11.7008  11.7252  11.7662  11.7827  11.9293  11.9442  11.9976
    12.2278  12.2430  12.4974  12.5642  12.6015  12.7148  12.7738  12.8255
    12.8529  12.8984  12.9739  13.0044  13.0195  13.0282  13.2161  13.3046
    13.4115  13.4337  13.5116  13.5397  13.6330  13.6655  13.7112  13.7761
    13.8054  13.8915  13.9159  14.0357  14.1051  14.1940  14.2698  14.3381
    14.3672  14.3774  14.4244  14.4397  14.4621  14.5219  14.5857  14.6203
    14.6605  14.7757  14.8267  14.8554  14.9086  14.9417  15.0110  15.0462
    15.0745  15.1215  15.1447  15.1637  15.1712  15.2150  15.2589  15.3103
    15.3453  15.4046  15.4397  15.4591  15.5217  15.5367  15.6018  15.6283
    15.6976  15.7724  16.2223  16.5301  16.5636  17.5035  17.6662  17.8440
    18.0745

          k = 0.2500-0.2500 0.2500 (  6493 PWs)   bands (ev):

   -88.0693 -72.3806 -72.2573 -72.2516 -72.2510 -72.2017 -72.1817 -72.1809
   -72.1783 -72.1057 -72.1047 -72.1037 -71.9090 -71.9085 -71.9056 -48.2835
   -48.2831 -48.1722 -38.4792 -38.3882 -38.3865 -38.3515 -38.3367 -38.3353
   -38.3059 -38.3029 -38.2921 -38.2883 -38.2783 -38.2630 -38.2602 -38.2416
   -38.2379 -38.2269 -38.1968 -38.1907 -38.1791 -38.1577 -38.1556 -38.1378
   -38.1329 -38.1252 -38.1222 -38.0976 -38.0949 -38.0641 -38.0620 -38.0500
   -38.0417 -38.0393 -38.0383 -37.9607 -37.9331 -37.9331 -37.8560 -37.8430
   -37.8270 -37.8199 -37.8125 -37.8122   8.9746  10.8219  10.8713  11.1276
    11.5859  11.6091  11.7422  11.8920  11.9313  12.0425  12.1219  12.1309
    12.3848  12.3913  12.5317  12.5557  12.5790  12.7330  12.7401  12.8316
    12.8590  12.9004  12.9321  13.0268  13.0502  13.1108  13.1262  13.3179
    13.3242  13.3522  13.3799  13.4304  13.4540  13.5847  13.6009  13.7167
    13.7315  13.7523  13.7590  13.8988  13.9628  14.0089  14.1282  14.1652
    14.2086  14.2120  14.3741  14.4532  14.4605  14.5418  14.5545  14.6698
    14.7134  14.7398  14.8004  14.8811  14.9031  14.9347  14.9878  14.9959
    15.0419  15.0834  15.1074  15.1192  15.1504  15.1688  15.2070  15.2070
    15.3240  15.3378  15.3865  15.4706  15.5295  15.5728  15.6121  15.6930
    15.7441  15.8634  15.8670  16.5529  16.5543  16.6698  18.4699  18.5288
    18.7740

          k = 0.2500-0.2500-0.5000 (  6456 PWs)   bands (ev):

   -88.0692 -72.3806 -72.2558 -72.2530 -72.2509 -72.2018 -72.1816 -72.1803
   -72.1788 -72.1057 -72.1047 -72.1036 -71.9089 -71.9075 -71.9065 -48.2742
   -48.2737 -48.1645 -38.4769 -38.3832 -38.3794 -38.3523 -38.3341 -38.3313
   -38.3078 -38.3008 -38.2911 -38.2849 -38.2770 -38.2624 -38.2578 -38.2391
   -38.2353 -38.2279 -38.1887 -38.1869 -38.1730 -38.1643 -38.1506 -38.1415
   -38.1375 -38.1307 -38.1195 -38.1073 -38.0956 -38.0658 -38.0584 -38.0458
   -38.0406 -38.0362 -38.0256 -37.9535 -37.9384 -37.9323 -37.8465 -37.8389
   -37.8299 -37.8211 -37.8144 -37.8119   9.6853   9.9163  11.2510  11.3500
    11.3523  11.6171  12.1215  12.1463  12.1751  12.1968  12.2296  12.2463
    12.2936  12.3746  12.3995  12.5164  12.5579  12.6931  12.7388  12.8483
    12.9330  12.9790  13.0041  13.0355  13.0763  13.1146  13.1550  13.2066
    13.2674  13.3295  13.3677  13.4185  13.4393  13.4569  13.5072  13.5178
    13.5402  13.5475  13.5863  13.5934  13.7141  13.7853  13.8106  13.9637
    14.0663  14.2312  14.3334  14.3984  14.5348  14.5716  14.6423  14.6613
    14.7027  14.7466  14.7905  14.8050  14.8152  14.9504  14.9720  15.0301
    15.0437  15.0699  15.1252  15.1423  15.1619  15.1815  15.2050  15.2532
    15.2693  15.3479  15.3869  15.4578  15.4690  15.6271  15.7087  15.8121
    15.8642  15.8710  15.8879  16.0279  16.0488  17.6824  17.8700  19.1681
    19.2451

 ------ SPIN DOWN ----------


          k = 0.0000 0.0000 0.0000 (  6451 PWs)   bands (ev):

   -86.7302 -68.9360 -68.9149 -68.9149 -68.8833 -68.8680 -68.8518 -68.8518
   -68.8423 -68.8423 -68.8421 -68.8375 -68.8375 -68.8222 -68.7961 -46.9245
   -46.9245 -46.8511 -35.2017 -35.1888 -35.1888 -35.1571 -35.1389 -35.1389
   -35.0680 -35.0677 -35.0677 -35.0193 -35.0151 -35.0151 -35.0024 -35.0024
   -34.9979 -34.9972 -34.9972 -34.9825 -34.9689 -34.9689 -34.9621 -34.9588
   -34.9552 -34.9552 -34.9463 -34.9425 -34.9425 -34.9300 -34.9167 -34.9167
   -34.9003 -34.9003 -34.8838 -34.8469 -34.8216 -34.8216 -34.8092 -34.8092
   -34.7855 -34.7787 -34.7787 -34.7724   8.2168  12.1764  12.2445  12.2445
    12.3480  12.3480  12.5171  12.9101  12.9101  13.0135  13.0300  13.0300
    13.5850  13.7557  13.7557  14.3306  14.3306  14.4319  14.7093  14.7093
    14.7458  14.9165  14.9165  14.9855  15.2050  15.2050  15.3740  15.4655
    15.4655  15.6892  15.7328  15.9072  16.0641  16.0641  16.1498  16.1498
    16.3629  16.3629  16.4001  16.4784  16.4828  16.4828  16.5381  16.5381
    16.5686  16.7543  16.7543  16.8883  17.0174  17.0174  17.0784  17.2862
    17.2862  17.3400  17.3400  17.4187  17.5547  17.5547  17.6453  17.8899
    17.9915  17.9915  18.0394  18.1032  18.1032  18.2218  18.2218  18.3563
    18.3563  18.3981  18.4082  18.4133  18.4133  18.4356  18.5760  18.5760
    18.7792  18.7792  18.8218  18.8218  18.8833  18.8833  18.9181  18.9658
    19.0507

          k = 0.0000 0.0000 0.2500 (  6495 PWs)   bands (ev):

   -86.7302 -68.9330 -68.9173 -68.9149 -68.8835 -68.8701 -68.8552 -68.8515
   -68.8449 -68.8427 -68.8422 -68.8376 -68.8293 -68.8200 -68.7990 -46.9373
   -46.9331 -46.8616 -35.1936 -35.1821 -35.1801 -35.1471 -35.1359 -35.1352
   -35.0812 -35.0780 -35.0711 -35.0650 -35.0603 -35.0451 -35.0355 -35.0179
   -35.0129 -35.0036 -34.9813 -34.9762 -34.9732 -34.9649 -34.9579 -34.9512
   -34.9333 -34.9294 -34.9243 -34.9205 -34.9161 -34.9091 -34.9040 -34.8981
   -34.8954 -34.8856 -34.8790 -34.8541 -34.8346 -34.8311 -34.8214 -34.8185
   -34.8065 -34.7983 -34.7955 -34.7893   8.5209  10.7961  12.4046  12.4062
    12.5050  12.5714  12.9237  12.9557  12.9971  13.0006  13.2131  13.3289
    13.6819  13.8766  13.8812  14.2547  14.3409  14.3844  14.5335  14.8003
    14.8007  14.8599  14.9314  15.0179  15.0641  15.0850  15.3743  15.3775
    15.4503  15.4847  15.6334  15.8057  15.8914  15.9122  15.9869  16.0628
    16.0841  16.1227  16.1766  16.2379  16.2706  16.3394  16.3471  16.4913
    16.5113  16.6714  16.7819  16.8456  16.8766  16.9055  17.0859  17.1765
    17.2245  17.3000  17.3913  17.6582  17.7191  17.7372  17.8015  17.8704
    17.9306  17.9705  18.0543  18.0757  18.1528  18.1668  18.2713  18.3238
    18.3495  18.3748  18.4104  18.4878  18.5168  18.6277  18.6532  18.7039
    18.7049  18.7289  18.8341  18.8457  18.8645  18.9130  18.9514  18.9661
    18.9860

          k = 0.0000 0.0000-0.5000 (  6480 PWs)   bands (ev):

   -86.7302 -68.9278 -68.9218 -68.9149 -68.8837 -68.8724 -68.8570 -68.8511
   -68.8452 -68.8431 -68.8423 -68.8376 -68.8266 -68.8134 -68.8042 -46.9373
   -46.9287 -46.8587 -35.1464 -35.1455 -35.1414 -35.1382 -35.1365 -35.1215
   -35.1202 -35.1133 -35.1119 -35.0991 -35.0763 -35.0681 -35.0599 -35.0217
   -35.0155 -35.0037 -34.9903 -34.9874 -34.9799 -34.9676 -34.9611 -34.9458
   -34.9264 -34.9099 -34.9024 -34.8973 -34.8928 -34.8892 -34.8862 -34.8791
   -34.8738 -34.8737 -34.8569 -34.8508 -34.8449 -34.8373 -34.8287 -34.8236
   -34.8219 -34.8159 -34.8150 -34.8051   9.2874   9.5742  12.6237  12.6804
    12.7060  12.7542  12.8809  12.8935  12.9301  13.1447  13.5391  13.6324
    13.7656  13.9504  13.9972  14.0647  14.1197  14.3146  14.4523  14.5550
    14.8562  14.8594  14.9502  15.0781  15.1876  15.2773  15.3598  15.3881
    15.4293  15.4421  15.4474  15.5478  15.5783  15.5851  15.6454  15.8178
    15.8312  15.8611  15.9571  16.0047  16.0762  16.1516  16.1777  16.3285
    16.3446  16.6167  16.7570  17.0184  17.0772  17.2487  17.3319  17.3425
    17.4343  17.4631  17.5067  17.6263  17.6950  17.7631  17.7742  17.8219
    17.8964  17.9296  18.0805  18.2122  18.2465  18.3083  18.3276  18.3385
    18.3634  18.3973  18.4262  18.4527  18.4802  18.4998  18.5225  18.6065
    18.6071  18.7163  18.7807  18.8371  18.8425  18.9543  19.0126  19.0574
    19.0648

          k = 0.0000 0.2500 0.2500 (  6500 PWs)   bands (ev):

   -86.7302 -68.9300 -68.9185 -68.9158 -68.8839 -68.8693 -68.8602 -68.8527
   -68.8458 -68.8444 -68.8415 -68.8329 -68.8236 -68.8210 -68.8015 -46.9380
   -46.9323 -46.8651 -35.1858 -35.1667 -35.1569 -35.1345 -35.1262 -35.1254
   -35.1178 -35.1005 -35.0932 -35.0859 -35.0563 -35.0516 -35.0363 -35.0120
   -35.0037 -35.0018 -34.9945 -34.9772 -34.9763 -34.9710 -34.9675 -34.9582
   -34.9410 -34.9408 -34.9276 -34.9240 -34.9064 -34.8984 -34.8906 -34.8817
   -34.8792 -34.8659 -34.8584 -34.8570 -34.8399 -34.8305 -34.8303 -34.8234
   -34.8194 -34.8068 -34.7923 -34.7887   8.8240  10.9700  11.1020  12.4210
    12.6442  12.6765  13.0590  13.1797  13.2243  13.2553  13.4192  13.5254
    13.7988  13.9227  14.0470  14.2113  14.3255  14.3853  14.5485  14.7091
    14.7973  14.8128  14.8701  14.9489  15.0581  15.0620  15.1549  15.2745
    15.3622  15.4643  15.5367  15.6473  15.6932  15.7567  15.7918  15.8474
    15.9280  15.9545  16.0170  16.1166  16.1441  16.2012  16.2783  16.4179
    16.4962  16.6149  16.6977  16.8542  16.9671  17.0902  17.1340  17.1605
    17.2919  17.3198  17.4047  17.5227  17.5845  17.7391  17.8261  17.9294
    17.9952  18.0371  18.0490  18.1025  18.1317  18.2084  18.2279  18.2716
    18.2829  18.3623  18.3803  18.3906  18.4499  18.4544  18.4731  18.5545
    18.5582  18.6906  18.8411  18.9925  19.0416  19.5094  19.6338  19.7071
    19.7187

          k = 0.0000 0.2500-0.5000 (  6452 PWs)   bands (ev):

   -86.7302 -68.9258 -68.9212 -68.9163 -68.8842 -68.8710 -68.8605 -68.8551
   -68.8459 -68.8444 -68.8410 -68.8315 -68.8238 -68.8142 -68.8060 -46.9283
   -46.9223 -46.8515 -35.1566 -35.1485 -35.1415 -35.1362 -35.1334 -35.1289
   -35.1147 -35.1073 -35.0979 -35.0736 -35.0651 -35.0587 -35.0436 -35.0323
   -35.0148 -34.9947 -34.9928 -34.9818 -34.9762 -34.9737 -34.9691 -34.9511
   -34.9328 -34.9311 -34.9246 -34.9136 -34.9097 -34.8975 -34.8902 -34.8734
   -34.8726 -34.8659 -34.8524 -34.8474 -34.8324 -34.8305 -34.8243 -34.8199
   -34.8125 -34.8064 -34.8037 -34.7927   9.5717   9.8439  11.5495  11.8274
    12.8878  12.9439  13.1077  13.2027  13.5103  13.5798  13.6560  13.6883
    13.8501  13.9498  14.0310  14.0985  14.1924  14.3897  14.4565  14.6270
    14.7415  14.8332  14.9127  15.0078  15.0467  15.0795  15.1707  15.2215
    15.2672  15.3449  15.3874  15.4853  15.5078  15.6096  15.6303  15.6737
    15.7047  15.7706  15.8314  15.9178  16.0033  16.0712  16.1549  16.4167
    16.4779  16.5366  16.8610  16.9286  17.0256  17.1373  17.2155  17.3426
    17.4032  17.4277  17.4973  17.5355  17.5683  17.5964  17.7054  17.8155
    17.8855  17.9658  18.0193  18.0718  18.1247  18.2231  18.2584  18.2757
    18.3210  18.3462  18.3806  18.4012  18.4132  18.4352  18.4704  18.5343
    18.6397  18.7267  18.8553  19.2519  19.3236  19.3513  19.4056  20.1818
    20.4235

          k = 0.0000-0.5000-0.5000 (  6496 PWs)   bands (ev):

   -86.7302 -68.9220 -68.9214 -68.9189 -68.8847 -68.8680 -68.8645 -68.8598
   -68.8455 -68.8445 -68.8396 -68.8293 -68.8188 -68.8156 -68.8087 -46.9396
   -46.9316 -46.8616 -35.1616 -35.1449 -35.1423 -35.1422 -35.1402 -35.1317
   -35.1143 -35.1085 -35.0920 -35.0634 -35.0508 -35.0460 -35.0143 -35.0121
   -35.0078 -35.0002 -34.9970 -34.9924 -34.9887 -34.9861 -34.9776 -34.9659
   -34.9599 -34.9546 -34.9448 -34.9396 -34.9221 -34.9047 -34.8864 -34.8775
   -34.8697 -34.8691 -34.8558 -34.8432 -34.8337 -34.8273 -34.8231 -34.8186
   -34.8090 -34.7974 -34.7957 -34.7862  10.2941  10.4357  10.4440  10.9473
    13.3058  13.3125  13.3403  13.4848  13.5424  13.6287  13.6384  13.7666
    13.9760  13.9944  14.0417  14.0648  14.3984  14.4031  14.5247  14.5286
    14.6873  14.7189  14.7195  14.7836  14.8691  14.9814  15.0451  15.0473
    15.2591  15.2745  15.3488  15.3661  15.4070  15.4516  15.5087  15.5334
    15.6595  15.6987  15.7486  15.9069  16.0139  16.1011  16.1977  16.4377
    16.4682  16.6061  16.6317  16.9079  16.9239  16.9772  17.1395  17.2384
    17.2653  17.3807  17.4919  17.5815  17.6421  17.6950  17.7131  17.7809
    17.8291  17.8768  17.9453  17.9486  18.0575  18.1027  18.1554  18.2287
    18.2492  18.2828  18.2898  18.3156  18.3480  18.4189  18.4509  18.5806
    18.7323  18.8034  18.9914  19.8233  19.8898  20.0078  20.0965  20.1525
    20.2651

          k = 0.2500 0.2500 0.2500 (  6493 PWs)   bands (ev):

   -86.7302 -68.9271 -68.9182 -68.9182 -68.8845 -68.8663 -68.8611 -68.8611
   -68.8438 -68.8438 -68.8426 -68.8240 -68.8235 -68.8235 -68.8033 -46.9350
   -46.9350 -46.8611 -35.1750 -35.1387 -35.1387 -35.1282 -35.1282 -35.1226
   -35.1192 -35.1192 -35.1166 -35.0585 -35.0585 -35.0465 -35.0465 -35.0388
   -35.0262 -35.0093 -34.9926 -34.9926 -34.9761 -34.9726 -34.9726 -34.9378
   -34.9378 -34.9243 -34.9174 -34.9174 -34.9092 -34.9092 -34.9065 -34.8949
   -34.8774 -34.8550 -34.8550 -34.8523 -34.8316 -34.8260 -34.8260 -34.8204
   -34.8204 -34.8031 -34.8031 -34.7918   9.1200  11.2193  11.2193  11.4060
    12.6246  12.6246  12.7914  13.4251  13.4251  13.5872  13.6921  13.6921
    14.0237  14.0713  14.0713  14.0968  14.4046  14.4155  14.4155  14.7629
    14.7685  14.7685  14.8488  14.8488  15.0654  15.0675  15.0675  15.0751
    15.4099  15.4099  15.4250  15.4674  15.4674  15.6710  15.6907  15.6907
    15.7280  15.7584  15.7584  15.9775  15.9775  16.1638  16.1638  16.2954
    16.4933  16.6224  16.6224  17.0299  17.1556  17.1556  17.2392  17.2392
    17.2672  17.3740  17.5230  17.5230  17.5466  17.7618  17.7952  17.7952
    17.9299  18.0319  18.0319  18.1173  18.1904  18.1904  18.2526  18.2526
    18.3188  18.3188  18.3443  18.3992  18.3992  18.4955  18.4955  18.5627
    18.5648  18.5648  18.6556  18.9875  18.9875  19.0101  20.2389  20.2389
    20.3797

          k = 0.2500 0.2500-0.5000 (  6456 PWs)   bands (ev):

   -86.7302 -68.9240 -68.9203 -68.9178 -68.8849 -68.8694 -68.8621 -68.8600
   -68.8449 -68.8432 -68.8418 -68.8273 -68.8234 -68.8149 -68.8069 -46.9296
   -46.9240 -46.8514 -35.1521 -35.1464 -35.1461 -35.1289 -35.1239 -35.1188
   -35.1038 -35.1017 -35.0866 -35.0795 -35.0655 -35.0503 -35.0455 -35.0307
   -35.0244 -35.0163 -35.0063 -34.9986 -34.9835 -34.9797 -34.9788 -34.9422
   -34.9406 -34.9349 -34.9236 -34.9084 -34.9000 -34.8949 -34.8888 -34.8760
   -34.8757 -34.8609 -34.8557 -34.8518 -34.8323 -34.8260 -34.8237 -34.8191
   -34.8082 -34.8076 -34.8020 -34.7956   9.8554  10.1134  11.8010  11.8013
    11.9466  12.2121  13.2005  13.5174  13.6329  13.7093  13.7925  13.8212
    13.9599  14.0748  14.1844  14.2285  14.3217  14.4108  14.5814  14.6205
    14.6570  14.8655  14.9010  14.9228  14.9584  14.9997  15.0909  15.1266
    15.1792  15.2121  15.3436  15.4029  15.4212  15.4814  15.5553  15.5708
    15.6013  15.6961  15.7542  15.8111  15.8535  15.9135  15.9784  16.2708
    16.4262  16.5276  16.7458  16.8497  17.0372  17.1425  17.3061  17.3694
    17.4280  17.5249  17.5567  17.5833  17.7119  17.7169  17.8435  17.8662
    17.9866  18.0026  18.1055  18.1519  18.1817  18.2048  18.2240  18.2572
    18.2752  18.3267  18.3340  18.3488  18.3871  18.4526  18.4752  18.5140
    18.5373  18.5796  18.6149  18.6332  18.7056  19.8273  19.9867  20.7657
    20.8234

          k = 0.2500-0.5000-0.5000 (  6472 PWs)   bands (ev):

   -86.7302 -68.9213 -68.9210 -68.9183 -68.8856 -68.8686 -68.8670 -68.8585
   -68.8464 -68.8424 -68.8402 -68.8296 -68.8174 -68.8159 -68.8088 -46.9301
   -46.9294 -46.8563 -35.1459 -35.1328 -35.1310 -35.1240 -35.1221 -35.1174
   -35.1044 -35.0955 -35.0871 -35.0671 -35.0469 -35.0468 -35.0449 -35.0405
   -35.0366 -35.0310 -35.0278 -35.0208 -35.0068 -34.9891 -34.9845 -34.9400
   -34.9343 -34.9305 -34.9120 -34.9062 -34.9010 -34.8942 -34.8841 -34.8816
   -34.8699 -34.8635 -34.8544 -34.8480 -34.8322 -34.8321 -34.8264 -34.8210
   -34.8138 -34.8087 -34.8055 -34.7973  10.5647  10.7140  10.7158  11.1689
    12.3872  12.5328  12.5412  13.0871  13.8105  13.9370  14.0429  14.0879
    14.1089  14.2081  14.2702  14.3740  14.4869  14.4968  14.5649  14.5876
    14.7080  14.7148  14.8026  14.8448  14.8585  14.9788  14.9980  15.0819
    15.1417  15.2104  15.2433  15.2979  15.3363  15.4011  15.4530  15.4767
    15.5089  15.6040  15.6152  15.7179  15.7229  15.8117  15.9045  15.9460
    16.0644  16.6113  16.6245  16.7552  17.1355  17.1895  17.4044  17.4356
    17.5856  17.6666  17.6919  17.7177  17.7823  17.8703  17.8779  17.8958
    17.9117  17.9865  18.0234  18.0446  18.0842  18.1662  18.1775  18.2108
    18.2180  18.2526  18.2925  18.2976  18.3111  18.3670  18.3785  18.4465
    18.5144  18.5643  18.6654  19.0995  19.1474  19.1673  19.2190  21.6758
    21.8399

          k =-0.5000-0.5000-0.5000 (  6488 PWs)   bands (ev):

   -86.7302 -68.9206 -68.9206 -68.9178 -68.8866 -68.8693 -68.8693 -68.8569
   -68.8479 -68.8406 -68.8406 -68.8297 -68.8161 -68.8161 -68.8090 -46.9317
   -46.9317 -46.8583 -35.1080 -35.1080 -35.1008 -35.1005 -35.1005 -35.0943
   -35.0908 -35.0908 -35.0814 -35.0776 -35.0776 -35.0747 -35.0742 -35.0742
   -35.0640 -35.0549 -35.0393 -35.0393 -35.0197 -34.9876 -34.9876 -34.9318
   -34.9318 -34.9257 -34.8822 -34.8822 -34.8809 -34.8760 -34.8760 -34.8723
   -34.8684 -34.8632 -34.8632 -34.8494 -34.8409 -34.8370 -34.8370 -34.8265
   -34.8265 -34.8209 -34.8209 -34.8094  11.1907  11.4246  11.4246  11.4591
    11.5152  11.5558  11.5558  12.5412  13.9959  13.9959  14.1817  14.1817
    14.2713  14.5851  14.5851  14.6005  14.6285  14.7036  14.7036  14.7228
    14.7228  14.8354  14.8390  14.8390  14.8644  15.0315  15.0572  15.0572
    15.0866  15.0866  15.2554  15.2787  15.2787  15.3217  15.3368  15.3368
    15.3418  15.3662  15.4483  15.4483  15.4567  15.5503  15.5503  15.6212
    15.6212  16.6402  16.6402  16.6433  17.2871  17.2871  17.4994  17.4994
    17.7323  17.9290  17.9290  17.9474  17.9896  17.9896  18.0175  18.0175
    18.0604  18.1269  18.1269  18.1432  18.1432  18.1693  18.2072  18.2100
    18.2640  18.2640  18.2837  18.2857  18.2857  18.3451  18.3451  18.3839
    18.3868  18.3868  18.4086  18.5355  18.5355  18.5483  18.8210  23.4635
    23.4635

          k =-0.2500 0.0000 0.2500 (  6500 PWs)   bands (ev):

   -86.7302 -68.9307 -68.9171 -68.9164 -68.8837 -68.8713 -68.8567 -68.8536
   -68.8464 -68.8441 -68.8417 -68.8315 -68.8287 -68.8176 -68.8016 -46.9391
   -46.9358 -46.8604 -35.1806 -35.1750 -35.1715 -35.1439 -35.1234 -35.1221
   -35.1054 -35.1030 -35.0814 -35.0642 -35.0570 -35.0522 -35.0348 -35.0150
   -35.0056 -35.0029 -34.9874 -34.9833 -34.9761 -34.9725 -34.9671 -34.9648
   -34.9579 -34.9339 -34.9223 -34.9200 -34.9142 -34.9046 -34.8930 -34.8887
   -34.8811 -34.8669 -34.8606 -34.8522 -34.8429 -34.8324 -34.8273 -34.8199
   -34.8061 -34.8018 -34.8000 -34.7868   8.8257  10.8924  11.1860  12.4123
    12.6418  12.6661  13.0880  13.1908  13.2188  13.3262  13.3819  13.4796
    13.7908  13.9402  13.9843  14.1843  14.3145  14.4555  14.5144  14.7474
    14.7757  14.8258  14.8859  14.9029  15.0222  15.1444  15.1692  15.3481
    15.4028  15.4626  15.5305  15.6072  15.6708  15.7543  15.7850  15.8425
    15.9144  15.9817  16.0265  16.0462  16.0988  16.2109  16.3579  16.4500
    16.5106  16.5702  16.7053  16.8495  16.8963  16.9935  17.1399  17.2056
    17.2552  17.2975  17.3981  17.6188  17.7000  17.7327  17.8581  17.8931
    17.9557  17.9856  18.0625  18.1023  18.1456  18.2345  18.2387  18.2757
    18.2820  18.3134  18.3527  18.3835  18.4546  18.4727  18.5043  18.5202
    18.5537  18.5830  18.9891  19.0098  19.0572  19.4146  19.5210  19.7086
    19.8509

          k = 0.2500-0.2500 0.2500 (  6493 PWs)   bands (ev):

   -86.7302 -68.9284 -68.9181 -68.9165 -68.8843 -68.8712 -68.8612 -68.8533
   -68.8471 -68.8437 -68.8405 -68.8324 -68.8236 -68.8171 -68.8037 -46.9350
   -46.9345 -46.8615 -35.1667 -35.1607 -35.1582 -35.1319 -35.1248 -35.1220
   -35.1150 -35.1032 -35.0746 -35.0617 -35.0587 -35.0509 -35.0430 -35.0381
   -35.0226 -35.0199 -35.0091 -34.9940 -34.9884 -34.9773 -34.9745 -34.9347
   -34.9331 -34.9219 -34.9211 -34.9191 -34.9070 -34.9035 -34.8963 -34.8880
   -34.8787 -34.8661 -34.8570 -34.8558 -34.8383 -34.8240 -34.8231 -34.8193
   -34.8131 -34.8020 -34.8007 -34.7957   9.1234  11.1165  11.2203  11.5200
    12.5735  12.6093  12.8474  13.4826  13.5433  13.5864  13.6360  13.6569
    13.9150  13.9828  14.0882  14.1674  14.2810  14.3724  14.4974  14.6584
    14.7904  14.8277  14.8888  14.9200  14.9800  15.0601  15.1687  15.2891
    15.3107  15.3877  15.4005  15.4831  15.5434  15.6395  15.6588  15.6803
    15.7587  15.7735  15.8304  15.8674  15.9872  16.0551  16.1761  16.2994
    16.5293  16.5694  16.7118  16.8730  16.9103  17.0986  17.1390  17.3707
    17.3834  17.4362  17.4609  17.6198  17.6862  17.7590  17.8515  17.9319
    17.9346  17.9723  18.0300  18.1046  18.1202  18.2265  18.2625  18.2667
    18.2851  18.3319  18.3348  18.3731  18.4440  18.4752  18.4942  18.5286
    18.5352  18.5942  18.6290  18.9651  18.9671  19.0280  20.2023  20.2559
    20.4233

          k = 0.2500-0.2500-0.5000 (  6456 PWs)   bands (ev):

   -86.7302 -68.9245 -68.9210 -68.9164 -68.8848 -68.8711 -68.8643 -68.8536
   -68.8480 -68.8431 -68.8398 -68.8328 -68.8198 -68.8145 -68.8075 -46.9258
   -46.9254 -46.8539 -35.1498 -35.1428 -35.1411 -35.1361 -35.1254 -35.1176
   -35.1034 -35.0904 -35.0844 -35.0770 -35.0698 -35.0583 -35.0540 -35.0414
   -35.0254 -35.0130 -35.0078 -34.9960 -34.9908 -34.9858 -34.9796 -34.9433
   -34.9354 -34.9248 -34.9173 -34.9001 -34.8986 -34.8888 -34.8863 -34.8785
   -34.8724 -34.8633 -34.8555 -34.8511 -34.8400 -34.8296 -34.8234 -34.8172
   -34.8134 -34.8094 -34.8003 -34.7964   9.8560  10.1162  11.7160  11.8728
    11.9079  12.2692  13.1910  13.5048  13.6657  13.7949  13.8402  13.8720
    13.9205  13.9717  14.1529  14.1836  14.2921  14.3897  14.5178  14.5888
    14.7477  14.8515  14.9057  14.9488  14.9717  15.0267  15.1065  15.1422
    15.1890  15.2464  15.3645  15.4034  15.4603  15.4772  15.5482  15.5811
    15.5993  15.6790  15.7162  15.7480  15.8065  15.8857  15.9699  16.3547
    16.4444  16.5995  16.6848  16.8368  16.9860  17.0303  17.3223  17.3434
    17.4236  17.5243  17.5820  17.6617  17.7338  17.7891  17.8282  17.8882
    17.9637  18.0078  18.0687  18.1058  18.1759  18.1950  18.2533  18.2832
    18.3246  18.3434  18.3526  18.3821  18.3967  18.4439  18.4721  18.5261
    18.5397  18.5774  18.6090  18.6234  18.6542  19.8009  19.9643  20.7409
    20.8434

     the Fermi energy is    16.2435 ev

!    total energy              =   -3807.99335887 Ry
     estimated scf accuracy    <          2.0E-09 Ry
     smearing contrib. (-TS)   =       0.01581962 Ry
     internal energy E=F+TS    =   -3808.00917849 Ry

     The total energy is F=E-TS. E is the sum of the following terms:
     one-electron contribution =   -1954.14199258 Ry
     hartree contribution      =    1103.23072081 Ry
     xc contribution           =    -422.84188936 Ry
     ewald contribution        =   -2534.25601736 Ry

     total magnetization       =    36.62 Bohr mag/cell
     absolute magnetization    =    39.10 Bohr mag/cell

     convergence has been achieved in  24 iterations

     negative rho (up, down):  0.000E+00 2.134E-03

     Forces acting on atoms (cartesian axes, Ry/au):

     atom    1 type  2   force =    -0.00149434   -0.00149434   -0.00149434
     atom    2 type  1   force =    -0.00046579    0.00107507    0.00107507
     atom    3 type  1   force =     0.00107507   -0.00046579    0.00107507
     atom    4 type  1   force =     0.00092010    0.00092010   -0.00099996
     atom    5 type  1   force =     0.00107507    0.00107507   -0.00046579
     atom    6 type  1   force =     0.00092010   -0.00099996    0.00092010
     atom    7 type  1   force =    -0.00099996    0.00092010    0.00092010
     atom    8 type  1   force =    -0.00023550   -0.00023550   -0.00023550
     atom    9 type  1   force =    -0.00027642    0.00001958    0.00001958
     atom   10 type  1   force =     0.00001958   -0.00027642    0.00001958
     atom   11 type  1   force =     0.00003182    0.00003182    0.00013526
     atom   12 type  1   force =     0.00001958    0.00001958   -0.00027642
     atom   13 type  1   force =     0.00003182    0.00013526    0.00003182
     atom   14 type  1   force =     0.00013526    0.00003182    0.00003182
     atom   15 type  1   force =    -0.00075636   -0.00075636   -0.00075636

     Total force =     0.004954     Total SCF correction =     0.000035
     Energy error            =      5.6E-05 Ry
     Gradient error          =      1.5E-03 Ry/Bohr

     number of scf cycles    =   9
     number of bfgs steps    =   8

     energy             old  =   -3807.9933024833 Ry
     energy             new  =   -3807.9933588697 Ry

     CASE: energy            _new < energy            _old

     new trust radius        =       0.0069416513 bohr
     new conv_thr            =       0.0000000100 Ry


ATOMIC_POSITIONS (crystal)
Ni               0.0031750529        0.0031750529        0.0031750529
Fe               0.4903913321        0.0091284284        0.0091284284
Fe               0.0091284284        0.4903913321        0.0091284284
Fe               0.4949574947        0.4949574947        0.0078995032
Fe               0.0091284284        0.0091284284        0.4903913321
Fe               0.4949574947        0.0078995032        0.4949574947
Fe               0.0078995032        0.4949574947        0.4949574947
Fe               0.4886130446        0.4886130446        0.4886130446
Fe               0.7542533591        0.2483203412        0.2483203412
Fe               0.2483203412        0.7542533591        0.2483203412
Fe               0.7481227582        0.7481227582        0.2516460674
Fe               0.2483203412        0.2483203412        0.7542533591
Fe               0.7481227582        0.2516460674        0.7481227582
Fe               0.2516460674        0.7481227582        0.7481227582
Fe               0.7529635957        0.7529635957        0.7529635957



     Writing config-only to output data dir ./outdir/fe15_ni1_end.save/ :
     XML data file
     NEW-OLD atomic charge density approx. for the potential

     Check: negative core charge=   -0.000004

     negative rho (up, down):  0.000E+00 2.299E-03
     Generating pointlists ...

     total cpu time spent up to now is     4986.8 secs

     per-process dynamical memory:   178.6 Mb

     Self-consistent Calculation

     iteration #  1     ecut=    45.00 Ry     beta= 0.10
     Davidson diagonalization with overlap
     ethr =  1.00E-06,  avg # of iterations =  7.0

     negative rho (up, down):  0.000E+00 2.300E-03

     total cpu time spent up to now is     5031.0 secs

     total energy              =   -3807.99362806 Ry
     estimated scf accuracy    <       0.00272076 Ry

     total magnetization       =    36.62 Bohr mag/cell
     absolute magnetization    =    39.11 Bohr mag/cell

     iteration #  2     ecut=    45.00 Ry     beta= 0.10
     Davidson diagonalization with overlap
     ethr =  1.12E-06,  avg # of iterations =  2.1

     negative rho (up, down):  0.000E+00 2.300E-03

     total cpu time spent up to now is     5053.6 secs

     total energy              =   -3807.99254704 Ry
     estimated scf accuracy    <       0.04197191 Ry

     total magnetization       =    36.62 Bohr mag/cell
     absolute magnetization    =    39.17 Bohr mag/cell

     iteration #  3     ecut=    45.00 Ry     beta= 0.10
     Davidson diagonalization with overlap
     ethr =  1.12E-06,  avg # of iterations =  2.0

     negative rho (up, down):  0.000E+00 2.299E-03

     total cpu time spent up to now is     5076.5 secs

     total energy              =   -3807.99310902 Ry
     estimated scf accuracy    <       0.00048396 Ry

     total magnetization       =    36.62 Bohr mag/cell
     absolute magnetization    =    39.11 Bohr mag/cell

     iteration #  4     ecut=    45.00 Ry     beta= 0.10
     Davidson diagonalization with overlap
     ethr =  2.00E-07,  avg # of iterations =  1.7

     negative rho (up, down):  0.000E+00 2.293E-03

     total cpu time spent up to now is     5097.1 secs

     total energy              =   -3807.99318309 Ry
     estimated scf accuracy    <       0.00003265 Ry

     total magnetization       =    36.62 Bohr mag/cell
     absolute magnetization    =    39.11 Bohr mag/cell

     iteration #  5     ecut=    45.00 Ry     beta= 0.10
     Davidson diagonalization with overlap
     ethr =  1.35E-08,  avg # of iterations =  2.4

     negative rho (up, down):  0.000E+00 2.286E-03

     total cpu time spent up to now is     5119.0 secs

     total energy              =   -3807.99321515 Ry
     estimated scf accuracy    <       0.00002967 Ry

     total magnetization       =    36.62 Bohr mag/cell
     absolute magnetization    =    39.11 Bohr mag/cell

     iteration #  6     ecut=    45.00 Ry     beta= 0.10
     Davidson diagonalization with overlap
     ethr =  1.23E-08,  avg # of iterations =  2.0

     negative rho (up, down):  0.000E+00 2.279E-03

     total cpu time spent up to now is     5141.7 secs

     total energy              =   -3807.99327274 Ry
     estimated scf accuracy    <       0.00009886 Ry

     total magnetization       =    36.62 Bohr mag/cell
     absolute magnetization    =    39.11 Bohr mag/cell

     iteration #  7     ecut=    45.00 Ry     beta= 0.10
     Davidson diagonalization with overlap
     ethr =  1.23E-08,  avg # of iterations =  2.0

     negative rho (up, down):  0.000E+00 2.279E-03

     total cpu time spent up to now is     5164.2 secs

     total energy              =   -3807.99330106 Ry
     estimated scf accuracy    <       0.00000526 Ry

     total magnetization       =    36.62 Bohr mag/cell
     absolute magnetization    =    39.11 Bohr mag/cell

     iteration #  8     ecut=    45.00 Ry     beta= 0.10
     Davidson diagonalization with overlap
     ethr =  2.17E-09,  avg # of iterations =  1.7

     negative rho (up, down):  0.000E+00 2.281E-03

     total cpu time spent up to now is     5184.0 secs

     total energy              =   -3807.99332459 Ry
     estimated scf accuracy    <       0.00000159 Ry

     total magnetization       =    36.62 Bohr mag/cell
     absolute magnetization    =    39.11 Bohr mag/cell

     iteration #  9     ecut=    45.00 Ry     beta= 0.10
     Davidson diagonalization with overlap
     ethr =  6.55E-10,  avg # of iterations =  1.6

     negative rho (up, down):  0.000E+00 2.284E-03

     total cpu time spent up to now is     5203.9 secs

     total energy              =   -3807.99334326 Ry
     estimated scf accuracy    <       0.00000215 Ry

     total magnetization       =    36.62 Bohr mag/cell
     absolute magnetization    =    39.11 Bohr mag/cell

     iteration # 10     ecut=    45.00 Ry     beta= 0.10
     Davidson diagonalization with overlap
     ethr =  6.55E-10,  avg # of iterations =  1.5

     negative rho (up, down):  0.000E+00 2.285E-03

     total cpu time spent up to now is     5224.6 secs

     total energy              =   -3807.99335856 Ry
     estimated scf accuracy    <       0.00000036 Ry

     total magnetization       =    36.62 Bohr mag/cell
     absolute magnetization    =    39.11 Bohr mag/cell

     iteration # 11     ecut=    45.00 Ry     beta= 0.10
     Davidson diagonalization with overlap
     ethr =  1.49E-10,  avg # of iterations =  3.2

     negative rho (up, down):  0.000E+00 2.287E-03

     total cpu time spent up to now is     5249.4 secs

     total energy              =   -3807.99337481 Ry
     estimated scf accuracy    <       0.00000413 Ry

     total magnetization       =    36.62 Bohr mag/cell
     absolute magnetization    =    39.11 Bohr mag/cell

     iteration # 12     ecut=    45.00 Ry     beta= 0.10
     Davidson diagonalization with overlap
     ethr =  1.49E-10,  avg # of iterations =  2.1

     negative rho (up, down):  0.000E+00 2.287E-03

     total cpu time spent up to now is     5272.5 secs

     total energy              =   -3807.99338525 Ry
     estimated scf accuracy    <       0.00000002 Ry

     total magnetization       =    36.62 Bohr mag/cell
     absolute magnetization    =    39.11 Bohr mag/cell

     iteration # 13     ecut=    45.00 Ry     beta= 0.10
     Davidson diagonalization with overlap
     ethr =  7.78E-12,  avg # of iterations =  3.4

     negative rho (up, down):  0.000E+00 2.288E-03

     total cpu time spent up to now is     5297.8 secs

     total energy              =   -3807.99339442 Ry
     estimated scf accuracy    <       0.00000043 Ry

     total magnetization       =    36.62 Bohr mag/cell
     absolute magnetization    =    39.11 Bohr mag/cell

     iteration # 14     ecut=    45.00 Ry     beta= 0.10
     Davidson diagonalization with overlap
     ethr =  7.78E-12,  avg # of iterations =  2.5

     negative rho (up, down):  0.000E+00 2.290E-03

     total cpu time spent up to now is     5322.1 secs

     total energy              =   -3807.99340137 Ry
     estimated scf accuracy    <       0.00000002 Ry

     total magnetization       =    36.62 Bohr mag/cell
     absolute magnetization    =    39.11 Bohr mag/cell

     iteration # 15     ecut=    45.00 Ry     beta= 0.10
     Davidson diagonalization with overlap
     ethr =  7.78E-12,  avg # of iterations =  3.5

     negative rho (up, down):  0.000E+00 2.292E-03

     total cpu time spent up to now is     5348.5 secs

     total energy              =   -3807.99340530 Ry
     estimated scf accuracy    <       0.00000111 Ry

     total magnetization       =    36.62 Bohr mag/cell
     absolute magnetization    =    39.11 Bohr mag/cell

     iteration # 16     ecut=    45.00 Ry     beta= 0.10
     Davidson diagonalization with overlap
     ethr =  7.78E-12,  avg # of iterations =  5.0

     negative rho (up, down):  0.000E+00 2.294E-03

     total cpu time spent up to now is     5381.1 secs

     total energy              =   -3807.99341205 Ry
     estimated scf accuracy    <       0.00000870 Ry

     total magnetization       =    36.62 Bohr mag/cell
     absolute magnetization    =    39.11 Bohr mag/cell

     iteration # 17     ecut=    45.00 Ry     beta= 0.10
     Davidson diagonalization with overlap
     ethr =  7.78E-12,  avg # of iterations =  4.5

     negative rho (up, down):  0.000E+00 2.294E-03

     total cpu time spent up to now is     5411.3 secs

     total energy              =   -3807.99341566 Ry
     estimated scf accuracy    <       0.00000005 Ry

     total magnetization       =    36.62 Bohr mag/cell
     absolute magnetization    =    39.11 Bohr mag/cell

     iteration # 18     ecut=    45.00 Ry     beta= 0.10
     Davidson diagonalization with overlap
     ethr =  7.78E-12,  avg # of iterations =  1.7

     negative rho (up, down):  0.000E+00 2.295E-03

     Magnetic moment per site  (integrated on atomic sphere of radius R)
     atom   1 (R=0.176)  charge= 16.5658  magn=  0.9595
     atom   2 (R=0.176)  charge= 14.2963  magn=  2.6110
     atom   3 (R=0.176)  charge= 14.2963  magn=  2.6110
     atom   4 (R=0.176)  charge= 14.2921  magn=  2.6530
     atom   5 (R=0.176)  charge= 14.2963  magn=  2.6110
     atom   6 (R=0.176)  charge= 14.2921  magn=  2.6530
     atom   7 (R=0.176)  charge= 14.2921  magn=  2.6530
     atom   8 (R=0.176)  charge= 14.2813  magn=  2.6964
     atom   9 (R=0.176)  charge= 14.3637  magn=  2.4425
     atom  10 (R=0.176)  charge= 14.3637  magn=  2.4425
     atom  11 (R=0.176)  charge= 14.2960  magn=  2.6601
     atom  12 (R=0.176)  charge= 14.3637  magn=  2.4425
     atom  13 (R=0.176)  charge= 14.2960  magn=  2.6601
     atom  14 (R=0.176)  charge= 14.2960  magn=  2.6601
     atom  15 (R=0.176)  charge= 14.2482  magn=  2.7917

     total cpu time spent up to now is     5432.4 secs

     End of self-consistent calculation

 ------ SPIN UP ------------


          k = 0.0000 0.0000 0.0000 (  6451 PWs)   bands (ev):

   -88.0699 -72.3825 -72.2609 -72.2505 -72.2505 -72.2022 -72.1786 -72.1786
   -72.1746 -72.1077 -72.1070 -72.1070 -71.9089 -71.9089 -71.9031 -48.2733
   -48.2733 -48.1625 -38.4834 -38.3979 -38.3979 -38.3435 -38.3408 -38.3408
   -38.3230 -38.2889 -38.2889 -38.2818 -38.2673 -38.2591 -38.2513 -38.2513
   -38.2272 -38.2272 -38.1991 -38.1738 -38.1738 -38.1540 -38.1540 -38.1242
   -38.1242 -38.1047 -38.1016 -38.0924 -38.0924 -38.0692 -38.0631 -38.0631
   -38.0554 -38.0554 -38.0501 -37.9741 -37.9208 -37.9208 -37.8645 -37.8645
   -37.8070 -37.8042 -37.8040 -37.8040   8.0824  11.4041  11.4205  11.4205
    11.4609  11.5117  11.5117  11.5491  11.5491  11.6718  11.7494  11.7494
    12.0836  12.0836  12.4148  12.7199  12.7285  12.7285  12.8147  12.8147
    12.8352  12.9556  12.9556  12.9896  13.1670  13.1670  13.2210  13.2387
    13.4344  13.4344  13.4730  13.6042  13.6042  13.7946  13.8067  13.8067
    14.0455  14.0455  14.0662  14.1343  14.1379  14.1379  14.1806  14.1806
    14.2493  14.5472  14.5686  14.5686  14.7371  14.8281  14.8281  14.8509
    14.8509  14.9431  15.0063  15.0124  15.0124  15.0786  15.0786  15.1330
    15.1330  15.1980  15.1980  15.2073  15.2073  15.2244  15.2440  15.4560
    15.5799  15.5799  15.9946  15.9946  16.0430  16.0430  16.1336  16.1336
    16.1533  16.1786  16.2955  16.2955  16.3516  16.5644  16.6137  16.6137
    16.6637

          k = 0.0000 0.0000 0.2500 (  6495 PWs)   bands (ev):

   -88.0700 -72.3825 -72.2598 -72.2519 -72.2507 -72.2024 -72.1787 -72.1783
   -72.1748 -72.1081 -72.1071 -72.1067 -71.9091 -71.9083 -71.9038 -48.2863
   -48.2820 -48.1732 -38.4846 -38.3986 -38.3966 -38.3489 -38.3422 -38.3409
   -38.3218 -38.2945 -38.2872 -38.2807 -38.2725 -38.2606 -38.2527 -38.2449
   -38.2300 -38.2281 -38.2026 -38.1878 -38.1857 -38.1668 -38.1466 -38.1430
   -38.1263 -38.1164 -38.1022 -38.0944 -38.0872 -38.0644 -38.0599 -38.0564
   -38.0518 -38.0408 -38.0408 -37.9704 -37.9311 -37.9267 -37.8617 -37.8594
   -37.8174 -37.8158 -37.8124 -37.8106   8.3824  10.5368  11.5063  11.5086
    11.5377  11.5811  11.6003  11.6302  11.6963  11.7775  11.8268  11.8684
    12.1377  12.1776  12.4387  12.6386  12.6756  12.6841  12.7438  12.7694
    12.8656  12.8843  12.9314  13.1058  13.1060  13.1515  13.2064  13.2503
    13.3322  13.5734  13.5764  13.6034  13.7278  13.7396  13.7632  13.7860
    13.8170  13.8522  13.9055  14.0840  14.0904  14.2789  14.3104  14.3570
    14.3795  14.4660  14.5356  14.5798  14.6060  14.6135  14.6436  14.7165
    14.7844  14.8611  14.9306  14.9555  15.0198  15.0240  15.0781  15.1021
    15.1086  15.1337  15.1570  15.1571  15.1820  15.1888  15.2314  15.2949
    15.3172  15.4684  15.5236  15.5307  15.5995  15.9001  16.0511  16.0785
    16.1045  16.1632  16.2793  16.2823  16.4386  16.6408  16.7886  16.8631
    17.0136

          k = 0.0000 0.0000-0.5000 (  6480 PWs)   bands (ev):

   -88.0700 -72.3824 -72.2581 -72.2536 -72.2507 -72.2024 -72.1786 -72.1778
   -72.1752 -72.1083 -72.1071 -72.1065 -71.9091 -71.9070 -71.9050 -48.2863
   -48.2773 -48.1704 -38.4824 -38.3935 -38.3875 -38.3516 -38.3374 -38.3354
   -38.3005 -38.2983 -38.2947 -38.2907 -38.2741 -38.2571 -38.2513 -38.2369
   -38.2367 -38.2322 -38.2076 -38.1936 -38.1924 -38.1858 -38.1518 -38.1443
   -38.1381 -38.1158 -38.0974 -38.0958 -38.0838 -38.0640 -38.0559 -38.0513
   -38.0501 -38.0295 -38.0259 -37.9633 -37.9382 -37.9268 -37.8551 -37.8471
   -37.8270 -37.8248 -37.8139 -37.8109   9.1386   9.4045  11.6273  11.6427
    11.6459  11.7101  11.7688  11.7938  11.8418  11.8791  11.9439  12.0656
    12.0719  12.2025  12.3238  12.3556  12.3952  12.6179  12.6317  12.6426
    12.9694  12.9736  13.2192  13.2294  13.2847  13.2873  13.2874  13.4200
    13.4467  13.4845  13.5647  13.5969  13.6129  13.6354  13.6559  13.7174
    13.7502  13.7804  13.8093  13.9407  13.9556  14.1283  14.1815  14.2026
    14.2506  14.3048  14.3838  14.4680  14.5092  14.5376  14.6187  14.6481
    14.6957  14.7612  14.7794  14.9163  15.0146  15.0539  15.0715  15.0809
    15.0961  15.0991  15.1554  15.1734  15.1801  15.2032  15.2128  15.2560
    15.4027  15.5171  15.6459  15.6615  15.6757  15.7391  15.7636  15.8208
    15.9106  16.2446  16.4328  16.4626  16.5428  16.6038  16.6639  16.7217
    16.7399

          k = 0.0000 0.2500 0.2500 (  6500 PWs)   bands (ev):

   -88.0700 -72.3824 -72.2586 -72.2525 -72.2512 -72.2025 -72.1786 -72.1778
   -72.1753 -72.1080 -72.1073 -72.1066 -71.9087 -71.9079 -71.9045 -48.2870
   -48.2812 -48.1768 -38.4839 -38.3947 -38.3916 -38.3509 -38.3386 -38.3372
   -38.3164 -38.2995 -38.2861 -38.2852 -38.2813 -38.2591 -38.2566 -38.2371
   -38.2365 -38.2270 -38.1988 -38.1973 -38.1847 -38.1634 -38.1492 -38.1424
   -38.1323 -38.1247 -38.1099 -38.1015 -38.0847 -38.0634 -38.0623 -38.0500
   -38.0463 -38.0428 -38.0390 -37.9631 -37.9322 -37.9291 -37.8550 -37.8496
   -37.8263 -37.8159 -37.8155 -37.8111   8.6819  10.6520  10.8041  11.4216
    11.6888  11.6915  11.7152  11.7385  11.8168  11.9186  11.9569  12.0046
    12.2450  12.2492  12.4927  12.5546  12.6064  12.6991  12.7859  12.8173
    12.8652  12.9175  12.9670  12.9676  13.0223  13.0369  13.2180  13.2785
    13.3994  13.4102  13.5116  13.5812  13.5915  13.6833  13.7078  13.7992
    13.8072  13.9066  13.9276  14.0463  14.1115  14.2196  14.2459  14.2966
    14.3236  14.3382  14.4089  14.4336  14.5258  14.5656  14.6331  14.6372
    14.6860  14.7400  14.7889  14.8170  14.8985  14.9613  15.0142  15.0356
    15.0698  15.0803  15.1103  15.1726  15.1955  15.2155  15.2673  15.3491
    15.3530  15.3963  15.4024  15.4809  15.5169  15.5223  15.5724  15.7241
    15.8031  15.8097  16.0773  16.5279  16.5526  17.6035  17.6527  17.8383
    17.9907

          k = 0.0000 0.2500-0.5000 (  6452 PWs)   bands (ev):

   -88.0699 -72.3823 -72.2571 -72.2536 -72.2514 -72.2025 -72.1785 -72.1774
   -72.1755 -72.1083 -72.1073 -72.1063 -71.9084 -71.9069 -71.9055 -48.2771
   -48.2709 -48.1629 -38.4799 -38.3883 -38.3836 -38.3519 -38.3353 -38.3343
   -38.3063 -38.2987 -38.2928 -38.2875 -38.2786 -38.2618 -38.2521 -38.2409
   -38.2340 -38.2252 -38.1987 -38.1890 -38.1864 -38.1655 -38.1490 -38.1453
   -38.1284 -38.1186 -38.1017 -38.0953 -38.0820 -38.0688 -38.0618 -38.0556
   -38.0491 -38.0369 -38.0340 -37.9534 -37.9361 -37.9280 -37.8472 -37.8391
   -37.8266 -37.8222 -37.8133 -37.8091   9.4111   9.6574  11.0632  11.2433
    11.8413  11.8754  11.9673  11.9990  12.0235  12.0319  12.0696  12.1603
    12.1843  12.2892  12.3484  12.4249  12.4647  12.6462  12.7386  12.7496
    12.9672  12.9936  13.0640  13.0955  13.1265  13.1351  13.1997  13.2881
    13.3556  13.4062  13.5314  13.5487  13.5718  13.6036  13.6455  13.6625
    13.6864  13.7722  13.7900  13.8463  13.9159  13.9573  14.0085  14.1014
    14.1567  14.3249  14.4427  14.4599  14.4724  14.5156  14.6373  14.6606
    14.6923  14.7195  14.7536  14.7669  14.8100  14.8683  14.9128  14.9989
    15.0432  15.0557  15.1135  15.1536  15.1664  15.2031  15.2260  15.2335
    15.2978  15.3573  15.3758  15.3998  15.4702  15.4758  15.5236  15.6450
    15.7642  15.9555  16.0965  17.0264  17.0650  17.1481  17.2247  18.7259
    18.8135

          k = 0.0000-0.5000-0.5000 (  6496 PWs)   bands (ev):

   -88.0700 -72.3824 -72.2556 -72.2543 -72.2523 -72.2027 -72.1786 -72.1769
   -72.1762 -72.1083 -72.1075 -72.1063 -71.9074 -71.9070 -71.9067 -48.2885
   -48.2806 -48.1734 -38.4795 -38.3864 -38.3782 -38.3563 -38.3346 -38.3337
   -38.3170 -38.2964 -38.2961 -38.2897 -38.2885 -38.2698 -38.2545 -38.2398
   -38.2375 -38.2250 -38.1936 -38.1887 -38.1828 -38.1515 -38.1477 -38.1400
   -38.1328 -38.1084 -38.1048 -38.0977 -38.0953 -38.0885 -38.0744 -38.0651
   -38.0562 -38.0432 -38.0415 -37.9457 -37.9391 -37.9327 -37.8414 -37.8321
   -37.8318 -37.8207 -37.8202 -37.8089  10.0898  10.1589  10.2094  10.6501
    12.0554  12.0768  12.1085  12.1498  12.2215  12.2394  12.2459  12.3027
    12.3549  12.3806  12.5337  12.5803  12.6342  12.6356  12.6681  12.6796
    12.8267  12.8761  12.8773  12.8986  12.9517  12.9914  13.0140  13.2446
    13.3349  13.3769  13.4325  13.4469  13.5218  13.5251  13.5348  13.5588
    13.6031  13.6861  13.7147  13.7303  13.7723  13.7742  13.8709  14.0635
    14.1243  14.3015  14.3161  14.4201  14.4882  14.5748  14.5971  14.6396
    14.6854  14.6966  14.7302  14.7419  14.7905  14.8073  14.8348  14.9138
    14.9212  14.9609  15.0056  15.0368  15.0539  15.0948  15.1334  15.1831
    15.1931  15.2067  15.2321  15.3085  15.3826  15.4222  15.4458  15.6647
    15.7787  16.0470  16.2036  17.8326  17.8836  17.9701  18.0603  18.1349
    18.2866

          k = 0.2500 0.2500 0.2500 (  6493 PWs)   bands (ev):

   -88.0700 -72.3824 -72.2574 -72.2524 -72.2524 -72.2026 -72.1778 -72.1778
   -72.1761 -72.1074 -72.1073 -72.1073 -71.9079 -71.9079 -71.9054 -48.2840
   -48.2840 -48.1727 -38.4818 -38.3880 -38.3880 -38.3522 -38.3341 -38.3341
   -38.3088 -38.2998 -38.2885 -38.2885 -38.2874 -38.2558 -38.2558 -38.2374
   -38.2374 -38.2355 -38.1958 -38.1958 -38.1872 -38.1570 -38.1570 -38.1387
   -38.1387 -38.1260 -38.1139 -38.0868 -38.0868 -38.0681 -38.0681 -38.0624
   -38.0407 -38.0392 -38.0392 -37.9573 -37.9327 -37.9327 -37.8450 -37.8450
   -37.8322 -37.8150 -37.8143 -37.8143   8.9739  10.8713  10.8713  11.0709
    11.6212  11.6212  11.6910  11.9044  11.9044  12.0194  12.1419  12.1419
    12.4034  12.4034  12.5305  12.5559  12.6050  12.7166  12.7166  12.8350
    12.8350  12.9185  12.9617  13.0139  13.0139  13.1189  13.1189  13.2906
    13.3575  13.3596  13.3596  13.4263  13.4263  13.5991  13.5991  13.7223
    13.7223  13.7380  13.8040  13.9064  13.9064  13.9761  14.1540  14.1540
    14.2397  14.2397  14.3479  14.5461  14.5461  14.5526  14.5999  14.6912
    14.6912  14.7737  14.8199  14.8412  14.8412  14.9110  14.9780  14.9780
    15.0513  15.0574  15.0574  15.1674  15.1674  15.2043  15.2043  15.2047
    15.2258  15.3207  15.3207  15.5300  15.5300  15.6107  15.6898  15.6898
    15.7353  15.7353  15.8636  16.5740  16.5740  16.6447  18.5274  18.5274
    18.7188

          k = 0.2500 0.2500-0.5000 (  6456 PWs)   bands (ev):

   -88.0699 -72.3823 -72.2563 -72.2535 -72.2523 -72.2026 -72.1778 -72.1778
   -72.1759 -72.1080 -72.1073 -72.1066 -71.9078 -71.9071 -71.9060 -48.2785
   -48.2728 -48.1628 -38.4784 -38.3840 -38.3804 -38.3522 -38.3335 -38.3321
   -38.3009 -38.2978 -38.2944 -38.2924 -38.2813 -38.2589 -38.2582 -38.2361
   -38.2333 -38.2300 -38.1953 -38.1917 -38.1805 -38.1576 -38.1518 -38.1486
   -38.1271 -38.1232 -38.1061 -38.1000 -38.0985 -38.0703 -38.0601 -38.0572
   -38.0414 -38.0402 -38.0302 -37.9508 -37.9377 -37.9316 -37.8459 -37.8369
   -37.8304 -37.8209 -37.8126 -37.8104   9.6860   9.9149  11.2935  11.3106
    11.3776  11.5779  12.1368  12.1553  12.1905  12.1978  12.2015  12.2230
    12.3048  12.3573  12.4070  12.5240  12.5581  12.6741  12.7531  12.8542
    12.9594  12.9916  13.0039  13.0417  13.0444  13.1087  13.1574  13.1861
    13.2358  13.2828  13.3743  13.4373  13.4498  13.4716  13.5077  13.5324
    13.5571  13.5748  13.5801  13.6249  13.7012  13.7743  13.8066  13.9506
    14.0793  14.2097  14.3445  14.3981  14.5631  14.6085  14.6293  14.6975
    14.7266  14.7334  14.7683  14.8193  14.8425  14.9223  14.9690  15.0318
    15.0449  15.0758  15.1202  15.1275  15.1672  15.1941  15.1974  15.2453
    15.2531  15.3308  15.3765  15.4187  15.4649  15.7079  15.7080  15.7693
    15.8194  15.8434  15.9080  15.9954  16.0505  17.7071  17.8982  19.2295
    19.2476

          k = 0.2500-0.5000-0.5000 (  6472 PWs)   bands (ev):

   -88.0699 -72.3823 -72.2551 -72.2542 -72.2528 -72.2027 -72.1782 -72.1769
   -72.1764 -72.1080 -72.1075 -72.1065 -71.9075 -71.9068 -71.9066 -48.2789
   -48.2782 -48.1678 -38.4771 -38.3789 -38.3744 -38.3537 -38.3324 -38.3316
   -38.3081 -38.2941 -38.2911 -38.2872 -38.2846 -38.2640 -38.2569 -38.2372
   -38.2361 -38.2280 -38.1920 -38.1893 -38.1740 -38.1535 -38.1531 -38.1409
   -38.1383 -38.1275 -38.1247 -38.1174 -38.1112 -38.0624 -38.0562 -38.0508
   -38.0438 -38.0343 -38.0318 -37.9476 -37.9419 -37.9366 -37.8439 -37.8363
   -37.8354 -37.8206 -37.8154 -37.8124  10.3543  10.4317  10.4732  10.8638
    11.8010  11.9208  11.9282  12.1659  12.2475  12.2717  12.3402  12.5550
    12.5582  12.6059  12.6248  12.6713  12.6788  12.7049  12.7073  12.7767
    12.8084  12.8671  12.8695  12.9049  12.9448  12.9686  13.0107  13.1087
    13.1418  13.1908  13.1971  13.2980  13.3099  13.3246  13.3587  13.3712
    13.4141  13.4361  13.4532  13.5440  13.5672  13.5797  13.6408  13.6719
    13.7705  14.2153  14.2167  14.2810  14.6920  14.6935  14.7258  14.8015
    14.8134  14.8484  14.8749  14.8821  14.9488  14.9506  14.9982  15.0309
    15.0575  15.1140  15.1292  15.1344  15.1771  15.2023  15.2069  15.2156
    15.2466  15.2537  15.3000  15.3564  15.3880  15.4207  15.4878  15.6102
    15.6558  15.8185  15.9423  16.6953  16.7400  16.7517  16.8735  20.1741
    20.3099

          k =-0.5000-0.5000-0.5000 (  6488 PWs)   bands (ev):

   -88.0699 -72.3822 -72.2541 -72.2541 -72.2538 -72.2028 -72.1775 -72.1770
   -72.1770 -72.1074 -72.1074 -72.1071 -71.9076 -71.9066 -71.9066 -48.2807
   -48.2807 -48.1698 -38.4752 -38.3697 -38.3697 -38.3538 -38.3290 -38.3290
   -38.3082 -38.2889 -38.2889 -38.2830 -38.2808 -38.2555 -38.2555 -38.2431
   -38.2340 -38.2340 -38.1963 -38.1963 -38.1624 -38.1554 -38.1554 -38.1476
   -38.1384 -38.1372 -38.1372 -38.1318 -38.1318 -38.0460 -38.0423 -38.0423
   -38.0402 -38.0292 -38.0292 -37.9466 -37.9466 -37.9448 -37.8454 -37.8381
   -37.8381 -37.8237 -37.8175 -37.8175  10.9673  11.1074  11.1074  11.1632
    11.1880  11.2056  11.2056  12.0633  12.6474  12.6474  12.6864  12.6864
    12.7114  12.7127  12.7201  12.7201  12.7287  12.7812  12.7812  12.8139
    12.8500  12.8500  12.9012  12.9012  12.9478  12.9478  12.9793  13.0352
    13.0352  13.0842  13.1108  13.1359  13.1359  13.1381  13.1598  13.1805
    13.1805  13.1997  13.1997  13.2040  13.2200  13.2555  13.2555  13.5714
    13.5714  14.1628  14.1816  14.1816  14.7548  14.7548  14.8650  14.8650
    14.8747  14.9339  14.9339  14.9728  14.9728  15.0088  15.0153  15.0825
    15.0825  15.1360  15.1423  15.1423  15.2294  15.3298  15.3298  15.3684
    15.3684  15.3875  15.4473  15.4473  15.5237  15.5883  15.5883  15.7092
    15.7092  15.7498  15.8247  16.0402  16.0402  16.0579  16.1330  22.3755
    22.3755

          k =-0.2500 0.0000 0.2500 (  6500 PWs)   bands (ev):

   -88.0700 -72.3824 -72.2589 -72.2521 -72.2514 -72.2025 -72.1786 -72.1782
   -72.1749 -72.1083 -72.1072 -72.1064 -71.9086 -71.9083 -71.9043 -48.2882
   -48.2848 -48.1720 -38.4825 -38.3933 -38.3930 -38.3517 -38.3409 -38.3397
   -38.3136 -38.2994 -38.2884 -38.2874 -38.2733 -38.2636 -38.2552 -38.2432
   -38.2346 -38.2302 -38.2058 -38.1901 -38.1873 -38.1558 -38.1508 -38.1413
   -38.1287 -38.1141 -38.1021 -38.0984 -38.0848 -38.0677 -38.0645 -38.0618
   -38.0503 -38.0409 -38.0405 -37.9642 -37.9330 -37.9292 -37.8591 -37.8506
   -37.8213 -37.8181 -37.8136 -37.8082   8.6823  10.6164  10.8451  11.4135
    11.6875  11.7007  11.7253  11.7662  11.7830  11.9293  11.9440  11.9974
    12.2281  12.2429  12.4975  12.5640  12.6013  12.7148  12.7731  12.8259
    12.8527  12.8982  12.9734  13.0053  13.0184  13.0293  13.2161  13.3042
    13.4117  13.4339  13.5108  13.5395  13.6327  13.6654  13.7114  13.7752
    13.8054  13.8920  13.9150  14.0341  14.1051  14.1942  14.2695  14.3367
    14.3680  14.3785  14.4229  14.4392  14.4616  14.5216  14.5868  14.6204
    14.6609  14.7752  14.8265  14.8563  14.9086  14.9413  15.0099  15.0460
    15.0738  15.1219  15.1440  15.1637  15.1725  15.2144  15.2570  15.3103
    15.3467  15.4045  15.4395  15.4590  15.5219  15.5372  15.6019  15.6288
    15.6967  15.7730  16.2220  16.5297  16.5641  17.5033  17.6661  17.8440
    18.0744

          k = 0.2500-0.2500 0.2500 (  6493 PWs)   bands (ev):

   -88.0700 -72.3824 -72.2580 -72.2524 -72.2518 -72.2026 -72.1786 -72.1778
   -72.1753 -72.1083 -72.1073 -72.1064 -71.9083 -71.9079 -71.9049 -48.2839
   -48.2836 -48.1731 -38.4811 -38.3888 -38.3871 -38.3525 -38.3377 -38.3362
   -38.3056 -38.3026 -38.2909 -38.2881 -38.2789 -38.2634 -38.2595 -38.2407
   -38.2358 -38.2276 -38.1999 -38.1931 -38.1802 -38.1579 -38.1549 -38.1375
   -38.1322 -38.1245 -38.1212 -38.0964 -38.0938 -38.0654 -38.0628 -38.0513
   -38.0428 -38.0403 -38.0393 -37.9603 -37.9327 -37.9327 -37.8555 -37.8425
   -37.8264 -37.8197 -37.8119 -37.8115   8.9747  10.8220  10.8714  11.1276
    11.5860  11.6092  11.7417  11.8920  11.9317  12.0426  12.1221  12.1304
    12.3848  12.3913  12.5310  12.5561  12.5789  12.7329  12.7395  12.8312
    12.8595  12.9003  12.9321  13.0270  13.0504  13.1107  13.1263  13.3182
    13.3242  13.3516  13.3787  13.4302  13.4546  13.5848  13.6013  13.7156
    13.7312  13.7522  13.7588  13.8970  13.9635  14.0084  14.1282  14.1656
    14.2092  14.2121  14.3739  14.4529  14.4603  14.5424  14.5536  14.6700
    14.7133  14.7404  14.8001  14.8814  14.9030  14.9338  14.9859  14.9947
    15.0415  15.0828  15.1074  15.1194  15.1512  15.1692  15.2069  15.2082
    15.3245  15.3366  15.3864  15.4705  15.5293  15.5737  15.6122  15.6931
    15.7445  15.8632  15.8668  16.5530  16.5543  16.6697  18.4698  18.5291
    18.7736

          k = 0.2500-0.2500-0.5000 (  6456 PWs)   bands (ev):

   -88.0699 -72.3823 -72.2566 -72.2537 -72.2518 -72.2026 -72.1786 -72.1772
   -72.1757 -72.1083 -72.1074 -72.1063 -71.9082 -71.9069 -71.9058 -48.2747
   -48.2741 -48.1654 -38.4787 -38.3839 -38.3800 -38.3533 -38.3351 -38.3323
   -38.3072 -38.3004 -38.2903 -38.2845 -38.2778 -38.2624 -38.2579 -38.2376
   -38.2333 -38.2288 -38.1918 -38.1897 -38.1739 -38.1640 -38.1499 -38.1415
   -38.1368 -38.1293 -38.1188 -38.1061 -38.0948 -38.0668 -38.0591 -38.0471
   -38.0417 -38.0374 -38.0264 -37.9531 -37.9379 -37.9318 -37.8459 -37.8385
   -37.8294 -37.8209 -37.8137 -37.8112   9.6855   9.9162  11.2511  11.3511
    11.3516  11.6167  12.1206  12.1464  12.1746  12.1974  12.2301  12.2468
    12.2935  12.3742  12.3988  12.5164  12.5582  12.6930  12.7380  12.8482
    12.9330  12.9785  13.0045  13.0348  13.0766  13.1142  13.1551  13.2070
    13.2676  13.3293  13.3675  13.4163  13.4399  13.4580  13.5062  13.5177
    13.5400  13.5475  13.5864  13.5931  13.7146  13.7860  13.8102  13.9629
    14.0661  14.2316  14.3335  14.3992  14.5351  14.5721  14.6422  14.6604
    14.7031  14.7459  14.7914  14.8045  14.8148  14.9492  14.9717  15.0283
    15.0418  15.0698  15.1254  15.1426  15.1617  15.1818  15.2048  15.2537
    15.2700  15.3477  15.3865  15.4577  15.4688  15.6277  15.7087  15.8121
    15.8641  15.8703  15.8885  16.0286  16.0494  17.6821  17.8698  19.1685
    19.2449

 ------ SPIN DOWN ----------


          k = 0.0000 0.0000 0.0000 (  6451 PWs)   bands (ev):

   -86.7304 -68.9360 -68.9151 -68.9151 -68.8839 -68.8680 -68.8508 -68.8508
   -68.8427 -68.8427 -68.8418 -68.8373 -68.8373 -68.8224 -68.7961 -46.9245
   -46.9245 -46.8516 -35.2014 -35.1887 -35.1887 -35.1571 -35.1389 -35.1389
   -35.0685 -35.0677 -35.0677 -35.0202 -35.0149 -35.0149 -35.0023 -35.0023
   -34.9985 -34.9971 -34.9971 -34.9816 -34.9692 -34.9692 -34.9619 -34.9589
   -34.9548 -34.9548 -34.9462 -34.9427 -34.9427 -34.9292 -34.9164 -34.9164
   -34.8998 -34.8998 -34.8838 -34.8472 -34.8218 -34.8218 -34.8090 -34.8090
   -34.7852 -34.7784 -34.7784 -34.7722   8.2169  12.1768  12.2446  12.2446
    12.3480  12.3480  12.5171  12.9105  12.9105  13.0133  13.0304  13.0304
    13.5849  13.7558  13.7558  14.3308  14.3308  14.4324  14.7088  14.7088
    14.7456  14.9167  14.9167  14.9854  15.2049  15.2049  15.3721  15.4655
    15.4655  15.6888  15.7332  15.9078  16.0640  16.0640  16.1501  16.1501
    16.3635  16.3635  16.3971  16.4796  16.4806  16.4806  16.5390  16.5390
    16.5711  16.7523  16.7523  16.8901  17.0208  17.0208  17.0734  17.2870
    17.2870  17.3374  17.3374  17.4183  17.5568  17.5568  17.6469  17.8920
    17.9905  17.9905  18.0377  18.1032  18.1032  18.2221  18.2221  18.3560
    18.3560  18.3982  18.4088  18.4135  18.4135  18.4363  18.5764  18.5764
    18.7801  18.7801  18.8209  18.8209  18.8842  18.8842  18.9188  18.9655
    19.0501

          k = 0.0000 0.0000 0.2500 (  6495 PWs)   bands (ev):

   -86.7304 -68.9331 -68.9174 -68.9151 -68.8842 -68.8700 -68.8547 -68.8504
   -68.8445 -68.8431 -68.8422 -68.8374 -68.8291 -68.8202 -68.7989 -46.9374
   -46.9331 -46.8621 -35.1934 -35.1820 -35.1800 -35.1471 -35.1359 -35.1353
   -35.0812 -35.0781 -35.0715 -35.0648 -35.0604 -35.0451 -35.0352 -35.0180
   -35.0132 -35.0037 -34.9813 -34.9762 -34.9732 -34.9651 -34.9582 -34.9508
   -34.9330 -34.9295 -34.9240 -34.9200 -34.9161 -34.9093 -34.9037 -34.8975
   -34.8952 -34.8854 -34.8786 -34.8543 -34.8346 -34.8313 -34.8213 -34.8183
   -34.8062 -34.7980 -34.7953 -34.7891   8.5210  10.7962  12.4048  12.4067
    12.5051  12.5715  12.9241  12.9559  12.9972  13.0008  13.2129  13.3295
    13.6819  13.8763  13.8813  14.2549  14.3414  14.3851  14.5326  14.7994
    14.8015  14.8599  14.9311  15.0178  15.0636  15.0851  15.3739  15.3782
    15.4491  15.4849  15.6319  15.8060  15.8928  15.9120  15.9857  16.0627
    16.0845  16.1220  16.1761  16.2384  16.2708  16.3409  16.3473  16.4904
    16.5110  16.6733  16.7820  16.8462  16.8769  16.9033  17.0864  17.1777
    17.2223  17.3019  17.3921  17.6580  17.7195  17.7369  17.8011  17.8709
    17.9295  17.9702  18.0549  18.0749  18.1536  18.1662  18.2718  18.3237
    18.3498  18.3740  18.4105  18.4871  18.5176  18.6280  18.6529  18.7040
    18.7054  18.7295  18.8340  18.8455  18.8652  18.9134  18.9517  18.9668
    18.9862

          k = 0.0000 0.0000-0.5000 (  6480 PWs)   bands (ev):

   -86.7305 -68.9279 -68.9219 -68.9150 -68.8844 -68.8722 -68.8568 -68.8499
   -68.8446 -68.8436 -68.8423 -68.8374 -68.8266 -68.8134 -68.8042 -46.9374
   -46.9287 -46.8592 -35.1463 -35.1454 -35.1412 -35.1378 -35.1363 -35.1215
   -35.1203 -35.1136 -35.1119 -35.0993 -35.0763 -35.0683 -35.0595 -35.0218
   -35.0158 -35.0034 -34.9906 -34.9873 -34.9799 -34.9679 -34.9614 -34.9455
   -34.9259 -34.9097 -34.9025 -34.8974 -34.8929 -34.8887 -34.8857 -34.8790
   -34.8737 -34.8736 -34.8566 -34.8510 -34.8447 -34.8373 -34.8287 -34.8234
   -34.8218 -34.8155 -34.8147 -34.8048   9.2875   9.5742  12.6238  12.6817
    12.7060  12.7543  12.8800  12.8936  12.9303  13.1449  13.5393  13.6319
    13.7668  13.9507  13.9979  14.0647  14.1188  14.3161  14.4516  14.5539
    14.8576  14.8585  14.9492  15.0789  15.1878  15.2760  15.3589  15.3874
    15.4297  15.4411  15.4468  15.5477  15.5788  15.5859  15.6462  15.8172
    15.8315  15.8594  15.9563  16.0039  16.0784  16.1525  16.1784  16.3290
    16.3462  16.6188  16.7568  17.0209  17.0750  17.2476  17.3307  17.3425
    17.4335  17.4622  17.5049  17.6284  17.6955  17.7609  17.7761  17.8225
    17.8967  17.9286  18.0798  18.2110  18.2465  18.3075  18.3274  18.3385
    18.3634  18.3990  18.4269  18.4535  18.4805  18.5001  18.5216  18.6070
    18.6074  18.7163  18.7800  18.8386  18.8437  18.9543  19.0125  19.0577
    19.0654

          k = 0.0000 0.2500 0.2500 (  6500 PWs)   bands (ev):

   -86.7304 -68.9301 -68.9186 -68.9160 -68.8846 -68.8692 -68.8597 -68.8520
   -68.8454 -68.8441 -68.8416 -68.8327 -68.8234 -68.8212 -68.8014 -46.9380
   -46.9324 -46.8656 -35.1856 -35.1666 -35.1568 -35.1345 -35.1262 -35.1254
   -35.1178 -35.1006 -35.0933 -35.0857 -35.0564 -35.0521 -35.0363 -35.0123
   -35.0038 -35.0019 -34.9943 -34.9771 -34.9762 -34.9712 -34.9675 -34.9582
   -34.9408 -34.9405 -34.9272 -34.9238 -34.9062 -34.8983 -34.8908 -34.8813
   -34.8790 -34.8660 -34.8584 -34.8569 -34.8398 -34.8305 -34.8302 -34.8232
   -34.8193 -34.8065 -34.7921 -34.7884   8.8240  10.9702  11.1019  12.4214
    12.6443  12.6765  13.0591  13.1796  13.2247  13.2559  13.4193  13.5259
    13.7986  13.9225  14.0466  14.2120  14.3260  14.3854  14.5481  14.7092
    14.7970  14.8135  14.8690  14.9486  15.0581  15.0629  15.1543  15.2727
    15.3618  15.4643  15.5371  15.6464  15.6932  15.7558  15.7921  15.8474
    15.9295  15.9548  16.0176  16.1174  16.1447  16.2012  16.2786  16.4193
    16.4974  16.6135  16.6972  16.8541  16.9662  17.0898  17.1344  17.1607
    17.2925  17.3217  17.4044  17.5206  17.5841  17.7389  17.8258  17.9282
    17.9964  18.0383  18.0478  18.1017  18.1313  18.2078  18.2281  18.2722
    18.2823  18.3628  18.3798  18.3904  18.4512  18.4548  18.4736  18.5548
    18.5591  18.6910  18.8413  18.9925  19.0415  19.5094  19.6337  19.7068
    19.7196

          k = 0.0000 0.2500-0.5000 (  6452 PWs)   bands (ev):

   -86.7304 -68.9259 -68.9213 -68.9164 -68.8849 -68.8708 -68.8602 -68.8547
   -68.8453 -68.8441 -68.8410 -68.8314 -68.8238 -68.8142 -68.8060 -46.9284
   -46.9223 -46.8519 -35.1565 -35.1483 -35.1414 -35.1361 -35.1332 -35.1288
   -35.1148 -35.1076 -35.0981 -35.0739 -35.0652 -35.0587 -35.0436 -35.0325
   -35.0150 -34.9947 -34.9928 -34.9820 -34.9762 -34.9741 -34.9691 -34.9505
   -34.9323 -34.9309 -34.9243 -34.9135 -34.9096 -34.8973 -34.8900 -34.8735
   -34.8726 -34.8657 -34.8525 -34.8473 -34.8323 -34.8305 -34.8241 -34.8198
   -34.8123 -34.8063 -34.8035 -34.7925   9.5719   9.8439  11.5496  11.8275
    12.8879  12.9444  13.1073  13.2030  13.5109  13.5796  13.6554  13.6888
    13.8510  13.9506  14.0311  14.0982  14.1918  14.3912  14.4563  14.6263
    14.7408  14.8337  14.9125  15.0070  15.0464  15.0798  15.1696  15.2206
    15.2673  15.3446  15.3871  15.4845  15.5074  15.6105  15.6304  15.6740
    15.7051  15.7718  15.8324  15.9172  16.0026  16.0712  16.1552  16.4183
    16.4806  16.5373  16.8614  16.9264  17.0261  17.1371  17.2129  17.3420
    17.4032  17.4285  17.4961  17.5382  17.5687  17.5967  17.7063  17.8153
    17.8839  17.9650  18.0192  18.0709  18.1242  18.2235  18.2584  18.2760
    18.3208  18.3462  18.3805  18.4018  18.4133  18.4354  18.4714  18.5343
    18.6403  18.7270  18.8554  19.2518  19.3236  19.3517  19.4061  20.1819
    20.4235

          k = 0.0000-0.5000-0.5000 (  6496 PWs)   bands (ev):

   -86.7305 -68.9221 -68.9215 -68.9190 -68.8854 -68.8676 -68.8642 -68.8596
   -68.8449 -68.8442 -68.8395 -68.8293 -68.8188 -68.8154 -68.8088 -46.9396
   -46.9317 -46.8621 -35.1616 -35.1447 -35.1421 -35.1419 -35.1400 -35.1315
   -35.1142 -35.1089 -35.0922 -35.0635 -35.0510 -35.0466 -35.0141 -35.0121
   -35.0081 -35.0004 -34.9970 -34.9929 -34.9885 -34.9863 -34.9771 -34.9651
   -34.9600 -34.9540 -34.9446 -34.9391 -34.9217 -34.9046 -34.8866 -34.8778
   -34.8697 -34.8689 -34.8559 -34.8429 -34.8337 -34.8272 -34.8229 -34.8184
   -34.8088 -34.7972 -34.7954 -34.7860  10.2947  10.4359  10.4434  10.9474
    13.3056  13.3126  13.3411  13.4844  13.5428  13.6284  13.6389  13.7674
    13.9754  13.9938  14.0430  14.0648  14.3989  14.4038  14.5244  14.5305
    14.6853  14.7185  14.7189  14.7836  14.8698  14.9808  15.0438  15.0459
    15.2589  15.2732  15.3476  15.3668  15.4071  15.4524  15.5092  15.5333
    15.6613  15.6999  15.7491  15.9058  16.0151  16.1027  16.1972  16.4384
    16.4676  16.6061  16.6298  16.9118  16.9241  16.9767  17.1396  17.2378
    17.2634  17.3827  17.4923  17.5824  17.6431  17.6938  17.7133  17.7805
    17.8286  17.8759  17.9438  17.9468  18.0576  18.1029  18.1565  18.2294
    18.2504  18.2828  18.2887  18.3154  18.3482  18.4192  18.4518  18.5805
    18.7330  18.8034  18.9912  19.8230  19.8900  20.0073  20.0961  20.1527
    20.2660

          k = 0.2500 0.2500 0.2500 (  6493 PWs)   bands (ev):

   -86.7305 -68.9272 -68.9183 -68.9183 -68.8852 -68.8662 -68.8607 -68.8607
   -68.8436 -68.8436 -68.8422 -68.8242 -68.8233 -68.8233 -68.8034 -46.9351
   -46.9351 -46.8615 -35.1748 -35.1385 -35.1385 -35.1283 -35.1283 -35.1224
   -35.1192 -35.1192 -35.1169 -35.0584 -35.0584 -35.0465 -35.0465 -35.0391
   -35.0266 -35.0090 -34.9926 -34.9926 -34.9764 -34.9727 -34.9727 -34.9377
   -34.9377 -34.9240 -34.9168 -34.9168 -34.9091 -34.9091 -34.9065 -34.8946
   -34.8774 -34.8550 -34.8550 -34.8523 -34.8314 -34.8260 -34.8260 -34.8201
   -34.8201 -34.8028 -34.8028 -34.7916   9.1201  11.2195  11.2195  11.4056
    12.6247  12.6247  12.7918  13.4257  13.4257  13.5879  13.6923  13.6923
    14.0218  14.0709  14.0709  14.0979  14.4046  14.4164  14.4164  14.7634
    14.7683  14.7683  14.8475  14.8475  15.0649  15.0678  15.0678  15.0742
    15.4087  15.4087  15.4260  15.4679  15.4679  15.6686  15.6921  15.6921
    15.7285  15.7591  15.7591  15.9784  15.9784  16.1639  16.1639  16.2951
    16.4976  16.6221  16.6221  17.0243  17.1547  17.1547  17.2417  17.2417
    17.2620  17.3789  17.5212  17.5212  17.5523  17.7579  17.7944  17.7944
    17.9303  18.0310  18.0310  18.1179  18.1912  18.1912  18.2526  18.2526
    18.3185  18.3185  18.3444  18.3993  18.3993  18.4962  18.4962  18.5631
    18.5654  18.5654  18.6556  18.9875  18.9875  19.0108  20.2386  20.2386
    20.3789

          k = 0.2500 0.2500-0.5000 (  6456 PWs)   bands (ev):

   -86.7304 -68.9241 -68.9204 -68.9179 -68.8856 -68.8691 -68.8617 -68.8598
   -68.8444 -68.8430 -68.8416 -68.8274 -68.8233 -68.8148 -68.8070 -46.9297
   -46.9241 -46.8519 -35.1520 -35.1463 -35.1459 -35.1287 -35.1238 -35.1187
   -35.1038 -35.1018 -35.0869 -35.0793 -35.0656 -35.0502 -35.0457 -35.0307
   -35.0249 -35.0164 -35.0061 -34.9989 -34.9834 -34.9798 -34.9789 -34.9420
   -34.9401 -34.9349 -34.9233 -34.9082 -34.9000 -34.8950 -34.8885 -34.8759
   -34.8753 -34.8606 -34.8557 -34.8519 -34.8323 -34.8259 -34.8236 -34.8189
   -34.8079 -34.8074 -34.8018 -34.7954   9.8555  10.1134  11.8010  11.8014
    11.9464  12.2123  13.2007  13.5177  13.6335  13.7095  13.7925  13.8211
    13.9610  14.0756  14.1844  14.2282  14.3198  14.4116  14.5817  14.6202
    14.6581  14.8655  14.9002  14.9240  14.9570  14.9981  15.0892  15.1262
    15.1784  15.2126  15.3437  15.4036  15.4216  15.4809  15.5551  15.5715
    15.6021  15.6974  15.7544  15.8116  15.8521  15.9137  15.9794  16.2715
    16.4269  16.5280  16.7448  16.8510  17.0373  17.1439  17.3044  17.3704
    17.4300  17.5243  17.5566  17.5808  17.7106  17.7164  17.8458  17.8656
    17.9860  18.0016  18.1044  18.1517  18.1814  18.2056  18.2237  18.2580
    18.2753  18.3264  18.3336  18.3495  18.3877  18.4528  18.4754  18.5160
    18.5373  18.5790  18.6151  18.6340  18.7054  19.8274  19.9865  20.7663
    20.8227

          k = 0.2500-0.5000-0.5000 (  6472 PWs)   bands (ev):

   -86.7304 -68.9214 -68.9211 -68.9185 -68.8863 -68.8683 -68.8667 -68.8583
   -68.8460 -68.8421 -68.8400 -68.8297 -68.8173 -68.8157 -68.8090 -46.9301
   -46.9294 -46.8568 -35.1459 -35.1326 -35.1309 -35.1238 -35.1220 -35.1173
   -35.1046 -35.0956 -35.0873 -35.0672 -35.0475 -35.0468 -35.0450 -35.0404
   -35.0366 -35.0309 -35.0279 -35.0210 -35.0069 -34.9889 -34.9844 -34.9399
   -34.9343 -34.9303 -34.9117 -34.9058 -34.9007 -34.8940 -34.8841 -34.8818
   -34.8699 -34.8634 -34.8544 -34.8477 -34.8323 -34.8321 -34.8263 -34.8208
   -34.8135 -34.8085 -34.8052 -34.7971  10.5653  10.7142  10.7152  11.1690
    12.3876  12.5324  12.5413  13.0871  13.8105  13.9371  14.0437  14.0879
    14.1090  14.2090  14.2703  14.3740  14.4870  14.4968  14.5652  14.5883
    14.7079  14.7148  14.8028  14.8430  14.8588  14.9777  14.9971  15.0810
    15.1401  15.2089  15.2433  15.2985  15.3366  15.4017  15.4535  15.4770
    15.5099  15.6030  15.6173  15.7195  15.7228  15.8121  15.9044  15.9461
    16.0639  16.6104  16.6245  16.7587  17.1359  17.1906  17.4041  17.4359
    17.5832  17.6662  17.6910  17.7194  17.7813  17.8701  17.8781  17.8959
    17.9110  17.9867  18.0224  18.0422  18.0834  18.1672  18.1776  18.2119
    18.2186  18.2529  18.2926  18.2977  18.3113  18.3677  18.3793  18.4467
    18.5151  18.5645  18.6653  19.0989  19.1476  19.1682  19.2190  21.6759
    21.8395

          k =-0.5000-0.5000-0.5000 (  6488 PWs)   bands (ev):

   -86.7304 -68.9207 -68.9207 -68.9179 -68.8873 -68.8690 -68.8690 -68.8565
   -68.8476 -68.8403 -68.8403 -68.8299 -68.8159 -68.8159 -68.8092 -46.9318
   -46.9318 -46.8588 -35.1077 -35.1077 -35.1008 -35.1008 -35.1008 -35.0941
   -35.0908 -35.0908 -35.0808 -35.0776 -35.0776 -35.0749 -35.0741 -35.0741
   -35.0641 -35.0551 -35.0396 -35.0396 -35.0201 -34.9875 -34.9875 -34.9317
   -34.9317 -34.9261 -34.8820 -34.8820 -34.8805 -34.8757 -34.8757 -34.8724
   -34.8680 -34.8632 -34.8632 -34.8494 -34.8408 -34.8371 -34.8371 -34.8262
   -34.8262 -34.8206 -34.8206 -34.8091  11.1912  11.4252  11.4252  11.4581
    11.5158  11.5556  11.5556  12.5410  13.9962  13.9962  14.1819  14.1819
    14.2726  14.5854  14.5854  14.6005  14.6294  14.7041  14.7041  14.7218
    14.7218  14.8355  14.8396  14.8396  14.8614  15.0275  15.0573  15.0573
    15.0843  15.0843  15.2560  15.2801  15.2801  15.3218  15.3385  15.3385
    15.3448  15.3680  15.4468  15.4468  15.4534  15.5496  15.5496  15.6232
    15.6232  16.6401  16.6401  16.6467  17.2883  17.2883  17.4989  17.4989
    17.7295  17.9310  17.9310  17.9433  17.9879  17.9879  18.0157  18.0157
    18.0617  18.1272  18.1272  18.1443  18.1443  18.1686  18.2076  18.2084
    18.2636  18.2636  18.2834  18.2834  18.2882  18.3460  18.3460  18.3843
    18.3882  18.3882  18.4098  18.5361  18.5361  18.5498  18.8207  23.4650
    23.4650

          k =-0.2500 0.0000 0.2500 (  6500 PWs)   bands (ev):

   -86.7304 -68.9307 -68.9173 -68.9165 -68.8844 -68.8711 -68.8562 -68.8532
   -68.8458 -68.8439 -68.8418 -68.8314 -68.8286 -68.8178 -68.8015 -46.9391
   -46.9358 -46.8609 -35.1805 -35.1748 -35.1713 -35.1438 -35.1234 -35.1222
   -35.1054 -35.1029 -35.0818 -35.0643 -35.0566 -35.0523 -35.0349 -35.0155
   -35.0058 -35.0030 -34.9873 -34.9835 -34.9763 -34.9722 -34.9673 -34.9640
   -34.9581 -34.9335 -34.9222 -34.9199 -34.9139 -34.9043 -34.8927 -34.8890
   -34.8810 -34.8667 -34.8603 -34.8521 -34.8430 -34.8324 -34.8272 -34.8198
   -34.8059 -34.8016 -34.7998 -34.7866   8.8258  10.8926  11.1861  12.4124
    12.6419  12.6663  13.0885  13.1902  13.2191  13.3265  13.3823  13.4800
    13.7912  13.9404  13.9839  14.1845  14.3146  14.4559  14.5149  14.7476
    14.7749  14.8253  14.8853  14.9029  15.0222  15.1427  15.1707  15.3487
    15.4021  15.4623  15.5285  15.6055  15.6718  15.7535  15.7853  15.8428
    15.9146  15.9823  16.0280  16.0471  16.0966  16.2109  16.3588  16.4498
    16.5128  16.5689  16.7052  16.8518  16.8939  16.9967  17.1376  17.2056
    17.2567  17.2991  17.3987  17.6197  17.7007  17.7304  17.8570  17.8922
    17.9564  17.9829  18.0623  18.1024  18.1473  18.2337  18.2387  18.2760
    18.2823  18.3147  18.3520  18.3837  18.4543  18.4726  18.5047  18.5208
    18.5544  18.5828  18.9888  19.0097  19.0580  19.4144  19.5207  19.7089
    19.8516

          k = 0.2500-0.2500 0.2500 (  6493 PWs)   bands (ev):

   -86.7305 -68.9284 -68.9183 -68.9166 -68.8850 -68.8710 -68.8608 -68.8529
   -68.8465 -68.8435 -68.8406 -68.8323 -68.8234 -68.8172 -68.8037 -46.9350
   -46.9346 -46.8620 -35.1666 -35.1605 -35.1581 -35.1318 -35.1247 -35.1218
   -35.1151 -35.1033 -35.0750 -35.0618 -35.0585 -35.0512 -35.0430 -35.0382
   -35.0227 -35.0197 -35.0092 -34.9939 -34.9882 -34.9774 -34.9746 -34.9346
   -34.9329 -34.9218 -34.9208 -34.9189 -34.9068 -34.9031 -34.8960 -34.8880
   -34.8790 -34.8658 -34.8570 -34.8558 -34.8382 -34.8240 -34.8230 -34.8191
   -34.8128 -34.8017 -34.8005 -34.7955   9.1235  11.1166  11.2204  11.5200
    12.5738  12.6095  12.8473  13.4823  13.5432  13.5867  13.6368  13.6576
    13.9152  13.9828  14.0882  14.1675  14.2814  14.3727  14.4973  14.6579
    14.7915  14.8281  14.8869  14.9196  14.9794  15.0612  15.1683  15.2882
    15.3103  15.3870  15.4008  15.4821  15.5433  15.6385  15.6587  15.6801
    15.7594  15.7737  15.8305  15.8680  15.9883  16.0550  16.1775  16.2991
    16.5291  16.5695  16.7137  16.8737  16.9107  17.0995  17.1379  17.3695
    17.3830  17.4382  17.4600  17.6207  17.6862  17.7598  17.8516  17.9316
    17.9326  17.9707  18.0299  18.1040  18.1214  18.2259  18.2621  18.2674
    18.2859  18.3319  18.3354  18.3721  18.4444  18.4759  18.4952  18.5277
    18.5358  18.5947  18.6290  18.9653  18.9673  19.0282  20.2025  20.2562
    20.4242

          k = 0.2500-0.2500-0.5000 (  6456 PWs)   bands (ev):

   -86.7304 -68.9245 -68.9211 -68.9165 -68.8855 -68.8708 -68.8639 -68.8533
   -68.8474 -68.8428 -68.8398 -68.8327 -68.8197 -68.8145 -68.8075 -46.9259
   -46.9254 -46.8544 -35.1496 -35.1428 -35.1408 -35.1359 -35.1252 -35.1175
   -35.1036 -35.0904 -35.0846 -35.0772 -35.0700 -35.0582 -35.0541 -35.0416
   -35.0256 -35.0131 -35.0077 -34.9960 -34.9907 -34.9856 -34.9795 -34.9430
   -34.9352 -34.9246 -34.9171 -34.8999 -34.8985 -34.8889 -34.8861 -34.8786
   -34.8723 -34.8633 -34.8555 -34.8505 -34.8403 -34.8296 -34.8233 -34.8169
   -34.8131 -34.8092 -34.8000 -34.7962   9.8562  10.1162  11.7160  11.8733
    11.9079  12.2689  13.1909  13.5045  13.6653  13.7961  13.8402  13.8718
    13.9207  13.9728  14.1526  14.1851  14.2919  14.3905  14.5183  14.5878
    14.7461  14.8513  14.9054  14.9486  14.9723  15.0263  15.1075  15.1418
    15.1880  15.2454  15.3632  15.4032  15.4583  15.4773  15.5493  15.5814
    15.5992  15.6805  15.7168  15.7488  15.8061  15.8868  15.9704  16.3562
    16.4447  16.5993  16.6819  16.8397  16.9868  17.0307  17.3219  17.3443
    17.4228  17.5237  17.5822  17.6618  17.7341  17.7893  17.8292  17.8863
    17.9616  18.0074  18.0678  18.1062  18.1749  18.1945  18.2544  18.2830
    18.3249  18.3431  18.3536  18.3817  18.3975  18.4449  18.4720  18.5262
    18.5402  18.5774  18.6096  18.6242  18.6551  19.8002  19.9646  20.7420
    20.8436

     the Fermi energy is    16.2437 ev

!    total energy              =   -3807.99342969 Ry
     estimated scf accuracy    <          8.6E-09 Ry
     smearing contrib. (-TS)   =       0.01583788 Ry
     internal energy E=F+TS    =   -3808.00926757 Ry

     The total energy is F=E-TS. E is the sum of the following terms:
     one-electron contribution =   -1954.06276509 Ry
     hartree contribution      =    1103.19044107 Ry
     xc contribution           =    -422.84186810 Ry
     ewald contribution        =   -2534.29507545 Ry

     total magnetization       =    36.62 Bohr mag/cell
     absolute magnetization    =    39.11 Bohr mag/cell

     convergence has been achieved in  18 iterations

     negative rho (up, down):  0.000E+00 2.295E-03

     Forces acting on atoms (cartesian axes, Ry/au):

     atom    1 type  2   force =    -0.00145462   -0.00145462   -0.00145462
     atom    2 type  1   force =    -0.00066538    0.00080052    0.00080052
     atom    3 type  1   force =     0.00080052   -0.00066538    0.00080052
     atom    4 type  1   force =     0.00079760    0.00079760   -0.00103365
     atom    5 type  1   force =     0.00080052    0.00080052   -0.00066538
     atom    6 type  1   force =     0.00079760   -0.00103365    0.00079760
     atom    7 type  1   force =    -0.00103365    0.00079760    0.00079760
     atom    8 type  1   force =    -0.00038581   -0.00038581   -0.00038581
     atom    9 type  1   force =    -0.00007603    0.00021050    0.00021050
     atom   10 type  1   force =     0.00021050   -0.00007603    0.00021050
     atom   11 type  1   force =     0.00018903    0.00018903    0.00001901
     atom   12 type  1   force =     0.00021050    0.00021050   -0.00007603
     atom   13 type  1   force =     0.00018903    0.00001901    0.00018903
     atom   14 type  1   force =     0.00001901    0.00018903    0.00018903
     atom   15 type  1   force =    -0.00039881   -0.00039881   -0.00039881

     Total force =     0.004468     Total SCF correction =     0.000163
     Energy error            =      7.1E-05 Ry
     Gradient error          =      1.5E-03 Ry/Bohr

     number of scf cycles    =  10
     number of bfgs steps    =   9

     energy             old  =   -3807.9933588697 Ry
     energy             new  =   -3807.9934296926 Ry

     CASE: energy            _new < energy            _old

     new trust radius        =       0.0104124770 bohr
     new conv_thr            =       0.0000000100 Ry


ATOMIC_POSITIONS (crystal)
Ni               0.0026200634        0.0026200634        0.0026200634
Fe               0.4901261098        0.0097252891        0.0097252891
Fe               0.0097252891        0.4901261098        0.0097252891
Fe               0.4953082336        0.4953082336        0.0075772867
Fe               0.0097252891        0.0097252891        0.4901261098
Fe               0.4953082336        0.0075772867        0.4953082336
Fe               0.0075772867        0.4953082336        0.4953082336
Fe               0.4884134198        0.4884134198        0.4884134198
Fe               0.7541391908        0.2482678287        0.2482678287
Fe               0.2482678287        0.7541391908        0.2482678287
Fe               0.7480833601        0.7480833601        0.2517362077
Fe               0.2482678287        0.2482678287        0.7541391908
Fe               0.7480833601        0.2517362077        0.7480833601
Fe               0.2517362077        0.7480833601        0.7480833601
Fe               0.7526182990        0.7526182990        0.7526182990



     Writing config-only to output data dir ./outdir/fe15_ni1_end.save/ :
     XML data file
     NEW-OLD atomic charge density approx. for the potential

     Check: negative core charge=   -0.000004

     negative rho (up, down):  0.000E+00 2.512E-03
     Generating pointlists ...

     total cpu time spent up to now is     5436.8 secs

     per-process dynamical memory:   178.6 Mb

     Self-consistent Calculation

     iteration #  1     ecut=    45.00 Ry     beta= 0.10
     Davidson diagonalization with overlap
     ethr =  1.00E-06,  avg # of iterations =  7.0

     negative rho (up, down):  0.000E+00 2.513E-03

     total cpu time spent up to now is     5485.0 secs

     total energy              =   -3807.99393560 Ry
     estimated scf accuracy    <       0.00544632 Ry

     total magnetization       =    36.63 Bohr mag/cell
     absolute magnetization    =    39.11 Bohr mag/cell

     iteration #  2     ecut=    45.00 Ry     beta= 0.10
     Davidson diagonalization with overlap
     ethr =  2.25E-06,  avg # of iterations =  2.1

     negative rho (up, down):  0.000E+00 2.514E-03

     total cpu time spent up to now is     5507.8 secs

     total energy              =   -3807.99163175 Ry
     estimated scf accuracy    <       0.08699992 Ry

     total magnetization       =    36.62 Bohr mag/cell
     absolute magnetization    =    39.24 Bohr mag/cell

     iteration #  3     ecut=    45.00 Ry     beta= 0.10
     Davidson diagonalization with overlap
     ethr =  2.25E-06,  avg # of iterations =  2.0

     negative rho (up, down):  0.000E+00 2.512E-03

     total cpu time spent up to now is     5530.9 secs

     total energy              =   -3807.99286660 Ry
     estimated scf accuracy    <       0.00070611 Ry

     total magnetization       =    36.63 Bohr mag/cell
     absolute magnetization    =    39.11 Bohr mag/cell

     iteration #  4     ecut=    45.00 Ry     beta= 0.10
     Davidson diagonalization with overlap
     ethr =  2.92E-07,  avg # of iterations =  1.8

     negative rho (up, down):  0.000E+00 2.503E-03

     total cpu time spent up to now is     5551.7 secs

     total energy              =   -3807.99301521 Ry
     estimated scf accuracy    <       0.00006302 Ry

     total magnetization       =    36.63 Bohr mag/cell
     absolute magnetization    =    39.11 Bohr mag/cell

     iteration #  5     ecut=    45.00 Ry     beta= 0.10
     Davidson diagonalization with overlap
     ethr =  2.60E-08,  avg # of iterations =  2.4

     negative rho (up, down):  0.000E+00 2.494E-03

     total cpu time spent up to now is     5573.9 secs

     total energy              =   -3807.99307373 Ry
     estimated scf accuracy    <       0.00007797 Ry

     total magnetization       =    36.63 Bohr mag/cell
     absolute magnetization    =    39.11 Bohr mag/cell

     iteration #  6     ecut=    45.00 Ry     beta= 0.10
     Davidson diagonalization with overlap
     ethr =  2.60E-08,  avg # of iterations =  2.0

     negative rho (up, down):  0.000E+00 2.483E-03

     total cpu time spent up to now is     5596.5 secs

     total energy              =   -3807.99318598 Ry
     estimated scf accuracy    <       0.00015296 Ry

     total magnetization       =    36.63 Bohr mag/cell
     absolute magnetization    =    39.11 Bohr mag/cell

     iteration #  7     ecut=    45.00 Ry     beta= 0.10
     Davidson diagonalization with overlap
     ethr =  2.60E-08,  avg # of iterations =  2.0

     negative rho (up, down):  0.000E+00 2.484E-03

     total cpu time spent up to now is     5618.4 secs

     total energy              =   -3807.99324849 Ry
     estimated scf accuracy    <       0.00000113 Ry

     total magnetization       =    36.63 Bohr mag/cell
     absolute magnetization    =    39.11 Bohr mag/cell

     iteration #  8     ecut=    45.00 Ry     beta= 0.10
     Davidson diagonalization with overlap
     ethr =  4.66E-10,  avg # of iterations =  3.8

     negative rho (up, down):  0.000E+00 2.486E-03

     total cpu time spent up to now is     5642.9 secs

     total energy              =   -3807.99329855 Ry
     estimated scf accuracy    <       0.00000038 Ry

     total magnetization       =    36.63 Bohr mag/cell
     absolute magnetization    =    39.11 Bohr mag/cell

     iteration #  9     ecut=    45.00 Ry     beta= 0.10
     Davidson diagonalization with overlap
     ethr =  1.57E-10,  avg # of iterations =  2.6

     negative rho (up, down):  0.000E+00 2.490E-03

     total cpu time spent up to now is     5666.0 secs

     total energy              =   -3807.99334044 Ry
     estimated scf accuracy    <       0.00000051 Ry

     total magnetization       =    36.63 Bohr mag/cell
     absolute magnetization    =    39.11 Bohr mag/cell

     iteration # 10     ecut=    45.00 Ry     beta= 0.10
     Davidson diagonalization with overlap
     ethr =  1.57E-10,  avg # of iterations =  2.0

     negative rho (up, down):  0.000E+00 2.492E-03

     total cpu time spent up to now is     5688.8 secs

     total energy              =   -3807.99337275 Ry
     estimated scf accuracy    <       0.00000053 Ry

     total magnetization       =    36.63 Bohr mag/cell
     absolute magnetization    =    39.11 Bohr mag/cell

     iteration # 11     ecut=    45.00 Ry     beta= 0.10
     Davidson diagonalization with overlap
     ethr =  1.57E-10,  avg # of iterations =  2.3

     negative rho (up, down):  0.000E+00 2.492E-03

     total cpu time spent up to now is     5712.0 secs

     total energy              =   -3807.99340191 Ry
     estimated scf accuracy    <       0.00000574 Ry

     total magnetization       =    36.63 Bohr mag/cell
     absolute magnetization    =    39.11 Bohr mag/cell

     iteration # 12     ecut=    45.00 Ry     beta= 0.10
     Davidson diagonalization with overlap
     ethr =  1.57E-10,  avg # of iterations =  2.0

     negative rho (up, down):  0.000E+00 2.493E-03

     total cpu time spent up to now is     5733.3 secs

     total energy              =   -3807.99342541 Ry
     estimated scf accuracy    <       0.00000992 Ry

     total magnetization       =    36.63 Bohr mag/cell
     absolute magnetization    =    39.11 Bohr mag/cell

     iteration # 13     ecut=    45.00 Ry     beta= 0.10
     Davidson diagonalization with overlap
     ethr =  1.57E-10,  avg # of iterations =  2.7

     negative rho (up, down):  0.000E+00 2.494E-03

     total cpu time spent up to now is     5757.4 secs

     total energy              =   -3807.99344830 Ry
     estimated scf accuracy    <       0.00004437 Ry

     total magnetization       =    36.63 Bohr mag/cell
     absolute magnetization    =    39.11 Bohr mag/cell

     iteration # 14     ecut=    45.00 Ry     beta= 0.10
     Davidson diagonalization with overlap
     ethr =  1.57E-10,  avg # of iterations =  4.1

     negative rho (up, down):  0.000E+00 2.497E-03

     total cpu time spent up to now is     5784.7 secs

     total energy              =   -3807.99347371 Ry
     estimated scf accuracy    <       0.00018188 Ry

     total magnetization       =    36.63 Bohr mag/cell
     absolute magnetization    =    39.11 Bohr mag/cell

     iteration # 15     ecut=    45.00 Ry     beta= 0.10
     Davidson diagonalization with overlap
     ethr =  1.57E-10,  avg # of iterations =  3.0

     negative rho (up, down):  0.000E+00 2.497E-03

     total cpu time spent up to now is     5810.0 secs

     total energy              =   -3807.99349316 Ry
     estimated scf accuracy    <       0.00029977 Ry

     total magnetization       =    36.63 Bohr mag/cell
     absolute magnetization    =    39.11 Bohr mag/cell

     iteration # 16     ecut=    45.00 Ry     beta= 0.10
     Davidson diagonalization with overlap
     ethr =  1.57E-10,  avg # of iterations =  1.2

     negative rho (up, down):  0.000E+00 2.495E-03

     total cpu time spent up to now is     5829.3 secs

     total energy              =   -3807.99350368 Ry
     estimated scf accuracy    <       0.00031295 Ry

     total magnetization       =    36.63 Bohr mag/cell
     absolute magnetization    =    39.11 Bohr mag/cell

     iteration # 17     ecut=    45.00 Ry     beta= 0.10
     Davidson diagonalization with overlap
     ethr =  1.57E-10,  avg # of iterations =  2.3

     negative rho (up, down):  0.000E+00 2.496E-03

     total cpu time spent up to now is     5852.9 secs

     total energy              =   -3807.99350884 Ry
     estimated scf accuracy    <       0.00023368 Ry

     total magnetization       =    36.63 Bohr mag/cell
     absolute magnetization    =    39.11 Bohr mag/cell

     iteration # 18     ecut=    45.00 Ry     beta= 0.10
     Davidson diagonalization with overlap
     ethr =  1.57E-10,  avg # of iterations =  2.0

     negative rho (up, down):  0.000E+00 2.495E-03

     total cpu time spent up to now is     5874.6 secs

     total energy              =   -3807.99351005 Ry
     estimated scf accuracy    <       0.00020758 Ry

     total magnetization       =    36.63 Bohr mag/cell
     absolute magnetization    =    39.11 Bohr mag/cell

     iteration # 19     ecut=    45.00 Ry     beta= 0.10
     Davidson diagonalization with overlap
     ethr =  1.57E-10,  avg # of iterations =  2.0

     negative rho (up, down):  0.000E+00 2.495E-03

     total cpu time spent up to now is     5896.9 secs

     total energy              =   -3807.99351283 Ry
     estimated scf accuracy    <       0.00017140 Ry

     total magnetization       =    36.63 Bohr mag/cell
     absolute magnetization    =    39.11 Bohr mag/cell

     iteration # 20     ecut=    45.00 Ry     beta= 0.10
     Davidson diagonalization with overlap
     ethr =  1.57E-10,  avg # of iterations =  3.6

     negative rho (up, down):  0.000E+00 2.495E-03

     total cpu time spent up to now is     5923.2 secs

     total energy              =   -3807.99351178 Ry
     estimated scf accuracy    <       0.00040572 Ry

     total magnetization       =    36.63 Bohr mag/cell
     absolute magnetization    =    39.11 Bohr mag/cell

     iteration # 21     ecut=    45.00 Ry     beta= 0.10
     Davidson diagonalization with overlap
     ethr =  1.57E-10,  avg # of iterations =  2.1

     negative rho (up, down):  0.000E+00 2.497E-03

     total cpu time spent up to now is     5945.9 secs

     total energy              =   -3807.99349896 Ry
     estimated scf accuracy    <       0.00048401 Ry

     total magnetization       =    36.63 Bohr mag/cell
     absolute magnetization    =    39.11 Bohr mag/cell

     iteration # 22     ecut=    45.00 Ry     beta= 0.10
     Davidson diagonalization with overlap
     ethr =  1.57E-10,  avg # of iterations =  3.7

     negative rho (up, down):  0.000E+00 2.499E-03

     total cpu time spent up to now is     5972.8 secs

     total energy              =   -3807.99348686 Ry
     estimated scf accuracy    <       0.00020477 Ry

     total magnetization       =    36.63 Bohr mag/cell
     absolute magnetization    =    39.11 Bohr mag/cell

     iteration # 23     ecut=    45.00 Ry     beta= 0.10
     Davidson diagonalization with overlap
     ethr =  1.57E-10,  avg # of iterations =  4.6

     negative rho (up, down):  0.000E+00 2.502E-03

     total cpu time spent up to now is     6003.7 secs

     total energy              =   -3807.99349247 Ry
     estimated scf accuracy    <       0.00000009 Ry

     total magnetization       =    36.63 Bohr mag/cell
     absolute magnetization    =    39.11 Bohr mag/cell

     iteration # 24     ecut=    45.00 Ry     beta= 0.10
     Davidson diagonalization with overlap
     ethr =  3.75E-11,  avg # of iterations =  4.7

     negative rho (up, down):  0.000E+00 2.503E-03

     total cpu time spent up to now is     6034.9 secs

     total energy              =   -3807.99349833 Ry
     estimated scf accuracy    <       0.00003851 Ry

     total magnetization       =    36.63 Bohr mag/cell
     absolute magnetization    =    39.11 Bohr mag/cell

     iteration # 25     ecut=    45.00 Ry     beta= 0.10
     Davidson diagonalization with overlap
     ethr =  3.75E-11,  avg # of iterations =  4.6

     negative rho (up, down):  0.000E+00 2.504E-03

     total cpu time spent up to now is     6065.6 secs

     total energy              =   -3807.99350087 Ry
     estimated scf accuracy    <       0.00000005 Ry

     total magnetization       =    36.63 Bohr mag/cell
     absolute magnetization    =    39.11 Bohr mag/cell

     iteration # 26     ecut=    45.00 Ry     beta= 0.10
     Davidson diagonalization with overlap
     ethr =  2.10E-11,  avg # of iterations =  3.5

     negative rho (up, down):  0.000E+00 2.506E-03

     total cpu time spent up to now is     6092.1 secs

     total energy              =   -3807.99350111 Ry
     estimated scf accuracy    <       0.00000509 Ry

     total magnetization       =    36.63 Bohr mag/cell
     absolute magnetization    =    39.11 Bohr mag/cell

     iteration # 27     ecut=    45.00 Ry     beta= 0.10
     Davidson diagonalization with overlap
     ethr =  2.10E-11,  avg # of iterations =  3.7

     negative rho (up, down):  0.000E+00 2.506E-03

     total cpu time spent up to now is     6119.2 secs

     total energy              =   -3807.99350254 Ry
     estimated scf accuracy    <       0.00000006 Ry

     total magnetization       =    36.63 Bohr mag/cell
     absolute magnetization    =    39.11 Bohr mag/cell

     iteration # 28     ecut=    45.00 Ry     beta= 0.10
     Davidson diagonalization with overlap
     ethr =  2.10E-11,  avg # of iterations =  2.5

     negative rho (up, down):  0.000E+00 2.506E-03

     total cpu time spent up to now is     6143.1 secs

     total energy              =   -3807.99350401 Ry
     estimated scf accuracy    <       0.00000145 Ry

     total magnetization       =    36.63 Bohr mag/cell
     absolute magnetization    =    39.11 Bohr mag/cell

     iteration # 29     ecut=    45.00 Ry     beta= 0.10
     Davidson diagonalization with overlap
     ethr =  2.10E-11,  avg # of iterations =  2.5

     negative rho (up, down):  0.000E+00 2.507E-03

     total cpu time spent up to now is     6167.1 secs

     total energy              =   -3807.99350480 Ry
     estimated scf accuracy    <       0.00000001 Ry

     total magnetization       =    36.63 Bohr mag/cell
     absolute magnetization    =    39.11 Bohr mag/cell

     iteration # 30     ecut=    45.00 Ry     beta= 0.10
     Davidson diagonalization with overlap
     ethr =  6.03E-12,  avg # of iterations =  2.6

     negative rho (up, down):  0.000E+00 2.507E-03

     total cpu time spent up to now is     6191.6 secs

     total energy              =   -3807.99350527 Ry
     estimated scf accuracy    <       0.00000026 Ry

     total magnetization       =    36.63 Bohr mag/cell
     absolute magnetization    =    39.11 Bohr mag/cell

     iteration # 31     ecut=    45.00 Ry     beta= 0.10
     Davidson diagonalization with overlap
     ethr =  6.03E-12,  avg # of iterations =  2.9

     negative rho (up, down):  0.000E+00 2.508E-03

     total cpu time spent up to now is     6216.5 secs

     total energy              =   -3807.99350590 Ry
     estimated scf accuracy    <       0.00000007 Ry

     total magnetization       =    36.63 Bohr mag/cell
     absolute magnetization    =    39.11 Bohr mag/cell

     iteration # 32     ecut=    45.00 Ry     beta= 0.10
     Davidson diagonalization with overlap
     ethr =  6.03E-12,  avg # of iterations =  2.7

     negative rho (up, down):  0.000E+00 2.508E-03

     total cpu time spent up to now is     6240.9 secs

     total energy              =   -3807.99350624 Ry
     estimated scf accuracy    <       0.00000015 Ry

     total magnetization       =    36.63 Bohr mag/cell
     absolute magnetization    =    39.11 Bohr mag/cell

     iteration # 33     ecut=    45.00 Ry     beta= 0.10
     Davidson diagonalization with overlap
     ethr =  6.03E-12,  avg # of iterations =  2.1

     negative rho (up, down):  0.000E+00 2.508E-03

     Magnetic moment per site  (integrated on atomic sphere of radius R)
     atom   1 (R=0.176)  charge= 16.5655  magn=  0.9598
     atom   2 (R=0.176)  charge= 14.2952  magn=  2.6134
     atom   3 (R=0.176)  charge= 14.2952  magn=  2.6134
     atom   4 (R=0.176)  charge= 14.2930  magn=  2.6505
     atom   5 (R=0.176)  charge= 14.2952  magn=  2.6134
     atom   6 (R=0.176)  charge= 14.2930  magn=  2.6505
     atom   7 (R=0.176)  charge= 14.2930  magn=  2.6505
     atom   8 (R=0.176)  charge= 14.2813  magn=  2.6970
     atom   9 (R=0.176)  charge= 14.3637  magn=  2.4420
     atom  10 (R=0.176)  charge= 14.3637  magn=  2.4420
     atom  11 (R=0.176)  charge= 14.2959  magn=  2.6609
     atom  12 (R=0.176)  charge= 14.3637  magn=  2.4420
     atom  13 (R=0.176)  charge= 14.2959  magn=  2.6609
     atom  14 (R=0.176)  charge= 14.2959  magn=  2.6609
     atom  15 (R=0.176)  charge= 14.2481  magn=  2.7925

     total cpu time spent up to now is     6263.6 secs

     End of self-consistent calculation

 ------ SPIN UP ------------


          k = 0.0000 0.0000 0.0000 (  6451 PWs)   bands (ev):

   -88.0710 -72.3846 -72.2619 -72.2518 -72.2518 -72.2036 -72.1739 -72.1739
   -72.1702 -72.1115 -72.1108 -72.1108 -71.9080 -71.9080 -71.9022 -48.2740
   -48.2740 -48.1641 -38.4856 -38.3986 -38.3986 -38.3450 -38.3420 -38.3420
   -38.3226 -38.2889 -38.2889 -38.2836 -38.2645 -38.2594 -38.2486 -38.2486
   -38.2294 -38.2294 -38.2027 -38.1758 -38.1758 -38.1534 -38.1534 -38.1228
   -38.1228 -38.1019 -38.0994 -38.0902 -38.0902 -38.0719 -38.0656 -38.0656
   -38.0570 -38.0570 -38.0519 -37.9731 -37.9201 -37.9201 -37.8638 -37.8638
   -37.8060 -37.8038 -37.8033 -37.8033   8.0825  11.4037  11.4210  11.4210
    11.4619  11.5113  11.5113  11.5491  11.5491  11.6713  11.7494  11.7494
    12.0838  12.0838  12.4151  12.7191  12.7275  12.7275  12.8147  12.8147
    12.8358  12.9561  12.9561  12.9893  13.1671  13.1671  13.2204  13.2392
    13.4346  13.4346  13.4722  13.6033  13.6033  13.7934  13.8056  13.8056
    14.0465  14.0465  14.0666  14.1294  14.1340  14.1340  14.1834  14.1834
    14.2553  14.5456  14.5697  14.5697  14.7360  14.8273  14.8273  14.8517
    14.8517  14.9449  15.0042  15.0103  15.0103  15.0775  15.0775  15.1324
    15.1324  15.1984  15.1984  15.2082  15.2082  15.2250  15.2439  15.4550
    15.5795  15.5795  15.9937  15.9937  16.0424  16.0424  16.1343  16.1343
    16.1510  16.1792  16.2933  16.2933  16.3526  16.5643  16.6175  16.6175
    16.6644

          k = 0.0000 0.0000 0.2500 (  6495 PWs)   bands (ev):

   -88.0711 -72.3846 -72.2608 -72.2531 -72.2519 -72.2037 -72.1740 -72.1738
   -72.1704 -72.1118 -72.1109 -72.1105 -71.9081 -71.9073 -71.9028 -48.2871
   -48.2827 -48.1749 -38.4869 -38.3993 -38.3973 -38.3503 -38.3434 -38.3423
   -38.3214 -38.2947 -38.2871 -38.2810 -38.2717 -38.2591 -38.2518 -38.2432
   -38.2309 -38.2291 -38.2063 -38.1898 -38.1874 -38.1659 -38.1469 -38.1425
   -38.1252 -38.1147 -38.0999 -38.0926 -38.0853 -38.0662 -38.0614 -38.0588
   -38.0533 -38.0428 -38.0420 -37.9695 -37.9304 -37.9260 -37.8611 -37.8587
   -37.8164 -37.8153 -37.8115 -37.8100   8.3825  10.5369  11.5067  11.5082
    11.5386  11.5814  11.6000  11.6301  11.6963  11.7773  11.8268  11.8683
    12.1377  12.1777  12.4388  12.6378  12.6748  12.6834  12.7438  12.7698
    12.8659  12.8841  12.9318  13.1048  13.1060  13.1524  13.2074  13.2492
    13.3319  13.5734  13.5753  13.6026  13.7271  13.7391  13.7633  13.7862
    13.8173  13.8526  13.9053  14.0837  14.0894  14.2786  14.3108  14.3571
    14.3778  14.4663  14.5356  14.5807  14.6064  14.6122  14.6416  14.7149
    14.7838  14.8614  14.9315  14.9558  15.0173  15.0223  15.0776  15.1018
    15.1083  15.1339  15.1570  15.1578  15.1819  15.1892  15.2320  15.2966
    15.3176  15.4672  15.5238  15.5305  15.5993  15.9001  16.0510  16.0781
    16.1049  16.1627  16.2788  16.2830  16.4386  16.6419  16.7893  16.8632
    17.0139

          k = 0.0000 0.0000-0.5000 (  6480 PWs)   bands (ev):

   -88.0711 -72.3846 -72.2591 -72.2548 -72.2519 -72.2038 -72.1740 -72.1734
   -72.1708 -72.1121 -72.1110 -72.1103 -71.9081 -71.9061 -71.9041 -48.2870
   -48.2780 -48.1720 -38.4847 -38.3943 -38.3882 -38.3530 -38.3390 -38.3367
   -38.3003 -38.2977 -38.2932 -38.2917 -38.2747 -38.2551 -38.2502 -38.2385
   -38.2338 -38.2325 -38.2118 -38.1962 -38.1943 -38.1846 -38.1515 -38.1448
   -38.1377 -38.1139 -38.0954 -38.0943 -38.0821 -38.0657 -38.0575 -38.0536
   -38.0513 -38.0312 -38.0269 -37.9625 -37.9374 -37.9261 -37.8546 -37.8463
   -37.8266 -37.8238 -37.8130 -37.8103   9.1387   9.4046  11.6266  11.6428
    11.6470  11.7098  11.7689  11.7935  11.8419  11.8792  11.9439  12.0653
    12.0716  12.2026  12.3243  12.3556  12.3952  12.6180  12.6313  12.6418
    12.9691  12.9745  13.2177  13.2296  13.2846  13.2871  13.2877  13.4193
    13.4467  13.4864  13.5645  13.5954  13.6125  13.6366  13.6551  13.7105
    13.7515  13.7801  13.8139  13.9405  13.9564  14.1281  14.1815  14.2023
    14.2507  14.3044  14.3835  14.4678  14.5083  14.5367  14.6190  14.6472
    14.6943  14.7604  14.7794  14.9139  15.0156  15.0539  15.0722  15.0805
    15.0978  15.0979  15.1550  15.1725  15.1790  15.2027  15.2144  15.2546
    15.4018  15.5174  15.6475  15.6614  15.6761  15.7376  15.7636  15.8214
    15.9118  16.2448  16.4320  16.4640  16.5431  16.6039  16.6653  16.7211
    16.7394

          k = 0.0000 0.2500 0.2500 (  6500 PWs)   bands (ev):

   -88.0711 -72.3846 -72.2596 -72.2537 -72.2524 -72.2038 -72.1740 -72.1732
   -72.1709 -72.1118 -72.1111 -72.1105 -71.9077 -71.9070 -71.9036 -48.2878
   -48.2819 -48.1785 -38.4861 -38.3954 -38.3924 -38.3524 -38.3400 -38.3385
   -38.3161 -38.2992 -38.2860 -38.2847 -38.2814 -38.2585 -38.2560 -38.2355
   -38.2352 -38.2280 -38.2024 -38.2005 -38.1862 -38.1631 -38.1493 -38.1419
   -38.1305 -38.1238 -38.1080 -38.0999 -38.0831 -38.0646 -38.0638 -38.0515
   -38.0477 -38.0444 -38.0409 -37.9624 -37.9314 -37.9284 -37.8543 -37.8490
   -37.8253 -37.8155 -37.8147 -37.8103   8.6820  10.6522  10.8039  11.4219
    11.6878  11.6917  11.7161  11.7388  11.8170  11.9186  11.9565  12.0043
    12.2449  12.2492  12.4927  12.5539  12.6060  12.6994  12.7852  12.8166
    12.8655  12.9174  12.9666  12.9671  13.0228  13.0374  13.2181  13.2773
    13.3987  13.4112  13.5119  13.5802  13.5917  13.6841  13.7080  13.7987
    13.8066  13.9071  13.9274  14.0463  14.1115  14.2185  14.2467  14.2957
    14.3234  14.3361  14.4072  14.4333  14.5261  14.5656  14.6325  14.6375
    14.6874  14.7401  14.7890  14.8175  14.8968  14.9595  15.0142  15.0344
    15.0688  15.0808  15.1102  15.1713  15.1958  15.2156  15.2669  15.3488
    15.3536  15.3962  15.4030  15.4804  15.5177  15.5224  15.5724  15.7245
    15.8033  15.8111  16.0774  16.5280  16.5521  17.6030  17.6519  17.8395
    17.9920

          k = 0.0000 0.2500-0.5000 (  6452 PWs)   bands (ev):

   -88.0710 -72.3845 -72.2582 -72.2548 -72.2526 -72.2038 -72.1740 -72.1730
   -72.1710 -72.1120 -72.1111 -72.1101 -71.9075 -71.9060 -71.9046 -48.2778
   -48.2716 -48.1645 -38.4822 -38.3891 -38.3844 -38.3534 -38.3368 -38.3357
   -38.3057 -38.2984 -38.2923 -38.2872 -38.2792 -38.2619 -38.2516 -38.2396
   -38.2312 -38.2255 -38.2035 -38.1914 -38.1884 -38.1646 -38.1485 -38.1456
   -38.1274 -38.1168 -38.0997 -38.0934 -38.0805 -38.0705 -38.0632 -38.0577
   -38.0509 -38.0387 -38.0352 -37.9528 -37.9353 -37.9273 -37.8466 -37.8383
   -37.8259 -37.8217 -37.8125 -37.8083   9.4113   9.6575  11.0632  11.2434
    11.8410  11.8756  11.9673  11.9988  12.0236  12.0320  12.0696  12.1601
    12.1841  12.2892  12.3487  12.4247  12.4648  12.6463  12.7378  12.7490
    12.9669  12.9936  13.0637  13.0953  13.1263  13.1356  13.1991  13.2884
    13.3554  13.4064  13.5308  13.5482  13.5706  13.6023  13.6459  13.6629
    13.6859  13.7722  13.7903  13.8453  13.9175  13.9577  14.0090  14.1001
    14.1586  14.3254  14.4417  14.4588  14.4709  14.5158  14.6375  14.6600
    14.6897  14.7194  14.7545  14.7659  14.8106  14.8689  14.9137  14.9973
    15.0435  15.0532  15.1128  15.1530  15.1678  15.2025  15.2257  15.2333
    15.2980  15.3576  15.3761  15.4002  15.4708  15.4752  15.5248  15.6449
    15.7646  15.9557  16.0963  17.0262  17.0650  17.1483  17.2248  18.7262
    18.8130

          k = 0.0000-0.5000-0.5000 (  6496 PWs)   bands (ev):

   -88.0711 -72.3845 -72.2568 -72.2554 -72.2536 -72.2040 -72.1741 -72.1724
   -72.1717 -72.1121 -72.1113 -72.1101 -71.9064 -71.9061 -71.9057 -48.2893
   -48.2813 -48.1750 -38.4818 -38.3872 -38.3791 -38.3579 -38.3361 -38.3351
   -38.3162 -38.2959 -38.2958 -38.2894 -38.2890 -38.2702 -38.2545 -38.2369
   -38.2361 -38.2252 -38.1983 -38.1906 -38.1858 -38.1523 -38.1481 -38.1369
   -38.1297 -38.1061 -38.1030 -38.0954 -38.0942 -38.0910 -38.0763 -38.0678
   -38.0582 -38.0444 -38.0432 -37.9452 -37.9383 -37.9319 -37.8408 -37.8312
   -37.8312 -37.8203 -37.8193 -37.8080  10.0907  10.1591  10.2084  10.6502
    12.0556  12.0771  12.1077  12.1501  12.2210  12.2389  12.2467  12.3015
    12.3541  12.3809  12.5342  12.5807  12.6334  12.6353  12.6687  12.6786
    12.8270  12.8746  12.8752  12.8992  12.9512  12.9928  13.0129  13.2455
    13.3354  13.3766  13.4329  13.4441  13.5185  13.5268  13.5372  13.5585
    13.6023  13.6847  13.7146  13.7339  13.7732  13.7746  13.8698  14.0614
    14.1237  14.3027  14.3157  14.4219  14.4879  14.5722  14.5993  14.6410
    14.6856  14.6952  14.7290  14.7415  14.7893  14.8053  14.8349  14.9126
    14.9224  14.9607  15.0054  15.0350  15.0537  15.0950  15.1344  15.1839
    15.1953  15.2064  15.2308  15.3078  15.3830  15.4242  15.4463  15.6639
    15.7788  16.0471  16.2033  17.8324  17.8831  17.9693  18.0592  18.1350
    18.2880

          k = 0.2500 0.2500 0.2500 (  6493 PWs)   bands (ev):

   -88.0711 -72.3846 -72.2585 -72.2536 -72.2536 -72.2039 -72.1732 -72.1732
   -72.1717 -72.1112 -72.1111 -72.1111 -71.9069 -71.9069 -71.9045 -48.2847
   -48.2847 -48.1743 -38.4841 -38.3888 -38.3888 -38.3539 -38.3354 -38.3354
   -38.3085 -38.2986 -38.2884 -38.2881 -38.2881 -38.2554 -38.2554 -38.2360
   -38.2360 -38.2359 -38.1989 -38.1989 -38.1895 -38.1563 -38.1563 -38.1382
   -38.1382 -38.1237 -38.1125 -38.0852 -38.0852 -38.0694 -38.0694 -38.0640
   -38.0418 -38.0411 -38.0411 -37.9567 -37.9319 -37.9319 -37.8444 -37.8444
   -37.8312 -37.8147 -37.8134 -37.8134   8.9740  10.8715  10.8715  11.0702
    11.6212  11.6212  11.6913  11.9044  11.9044  12.0197  12.1418  12.1418
    12.4031  12.4031  12.5292  12.5555  12.6055  12.7164  12.7164  12.8338
    12.8338  12.9186  12.9621  13.0137  13.0137  13.1195  13.1195  13.2891
    13.3582  13.3596  13.3596  13.4265  13.4265  13.5992  13.5992  13.7222
    13.7222  13.7385  13.8044  13.9051  13.9051  13.9750  14.1563  14.1563
    14.2398  14.2398  14.3479  14.5454  14.5454  14.5506  14.5956  14.6901
    14.6901  14.7763  14.8196  14.8403  14.8403  14.9132  14.9775  14.9775
    15.0504  15.0567  15.0567  15.1685  15.1685  15.2034  15.2034  15.2053
    15.2265  15.3208  15.3208  15.5293  15.5293  15.6111  15.6897  15.6897
    15.7364  15.7364  15.8636  16.5740  16.5740  16.6449  18.5272  18.5272
    18.7181

          k = 0.2500 0.2500-0.5000 (  6456 PWs)   bands (ev):

   -88.0710 -72.3845 -72.2574 -72.2546 -72.2535 -72.2039 -72.1733 -72.1732
   -72.1715 -72.1118 -72.1111 -72.1105 -71.9068 -71.9061 -71.9051 -48.2792
   -48.2735 -48.1644 -38.4807 -38.3849 -38.3811 -38.3538 -38.3349 -38.3335
   -38.2992 -38.2975 -38.2939 -38.2930 -38.2818 -38.2589 -38.2586 -38.2332
   -38.2316 -38.2303 -38.2000 -38.1946 -38.1818 -38.1561 -38.1518 -38.1489
   -38.1259 -38.1214 -38.1044 -38.0983 -38.0981 -38.0728 -38.0616 -38.0574
   -38.0426 -38.0417 -38.0318 -37.9502 -37.9369 -37.9309 -37.8453 -37.8363
   -37.8296 -37.8204 -37.8118 -37.8095   9.6861   9.9150  11.2939  11.3102
    11.3774  11.5780  12.1367  12.1555  12.1909  12.1980  12.2009  12.2218
    12.3039  12.3584  12.4075  12.5235  12.5581  12.6746  12.7520  12.8533
    12.9586  12.9919  13.0034  13.0412  13.0449  13.1098  13.1573  13.1859
    13.2349  13.2809  13.3735  13.4371  13.4494  13.4714  13.5087  13.5325
    13.5576  13.5743  13.5812  13.6241  13.7001  13.7752  13.8087  13.9496
    14.0784  14.2107  14.3443  14.3990  14.5619  14.6086  14.6278  14.6979
    14.7266  14.7323  14.7664  14.8193  14.8435  14.9208  14.9675  15.0321
    15.0446  15.0758  15.1203  15.1282  15.1675  15.1938  15.1969  15.2460
    15.2536  15.3312  15.3757  15.4199  15.4641  15.7074  15.7084  15.7710
    15.8187  15.8439  15.9079  15.9953  16.0500  17.7069  17.8980  19.2291
    19.2472

          k = 0.2500-0.5000-0.5000 (  6472 PWs)   bands (ev):

   -88.0711 -72.3844 -72.2562 -72.2552 -72.2540 -72.2040 -72.1737 -72.1725
   -72.1719 -72.1118 -72.1113 -72.1104 -71.9066 -71.9058 -71.9057 -48.2796
   -48.2789 -48.1694 -38.4795 -38.3797 -38.3753 -38.3554 -38.3339 -38.3330
   -38.3069 -38.2931 -38.2909 -38.2868 -38.2856 -38.2644 -38.2571 -38.2380
   -38.2328 -38.2266 -38.1963 -38.1931 -38.1753 -38.1534 -38.1528 -38.1393
   -38.1360 -38.1266 -38.1240 -38.1164 -38.1106 -38.0635 -38.0573 -38.0521
   -38.0450 -38.0356 -38.0331 -37.9470 -37.9411 -37.9358 -37.8431 -37.8356
   -37.8348 -37.8202 -37.8144 -37.8114  10.3551  10.4319  10.4723  10.8640
    11.8012  11.9203  11.9282  12.1656  12.2474  12.2721  12.3394  12.5535
    12.5581  12.6043  12.6258  12.6715  12.6795  12.7054  12.7071  12.7759
    12.8079  12.8659  12.8700  12.9051  12.9457  12.9676  13.0094  13.1082
    13.1418  13.1908  13.1981  13.2964  13.3098  13.3245  13.3583  13.3716
    13.4139  13.4368  13.4529  13.5449  13.5673  13.5786  13.6417  13.6712
    13.7705  14.2165  14.2177  14.2822  14.6917  14.6943  14.7244  14.8016
    14.8143  14.8464  14.8726  14.8811  14.9473  14.9477  14.9993  15.0298
    15.0578  15.1130  15.1284  15.1347  15.1772  15.2036  15.2073  15.2162
    15.2479  15.2544  15.2988  15.3577  15.3875  15.4207  15.4895  15.6098
    15.6561  15.8187  15.9421  16.6943  16.7406  16.7518  16.8736  20.1740
    20.3094

          k =-0.5000-0.5000-0.5000 (  6488 PWs)   bands (ev):

   -88.0710 -72.3844 -72.2552 -72.2552 -72.2551 -72.2040 -72.1730 -72.1726
   -72.1726 -72.1112 -72.1112 -72.1109 -71.9067 -71.9056 -71.9056 -48.2814
   -48.2814 -48.1715 -38.4776 -38.3706 -38.3706 -38.3557 -38.3305 -38.3305
   -38.3065 -38.2882 -38.2882 -38.2834 -38.2807 -38.2560 -38.2560 -38.2456
   -38.2308 -38.2308 -38.2003 -38.2003 -38.1633 -38.1551 -38.1551 -38.1453
   -38.1377 -38.1370 -38.1370 -38.1308 -38.1308 -38.0470 -38.0434 -38.0434
   -38.0411 -38.0304 -38.0304 -37.9458 -37.9458 -37.9441 -37.8445 -37.8376
   -37.8376 -37.8233 -37.8165 -37.8165  10.9677  11.1079  11.1079  11.1625
    11.1879  11.2053  11.2053  12.0631  12.6465  12.6465  12.6874  12.6874
    12.7090  12.7133  12.7189  12.7189  12.7290  12.7801  12.7801  12.8152
    12.8507  12.8507  12.9008  12.9008  12.9492  12.9492  12.9780  13.0333
    13.0333  13.0843  13.1097  13.1348  13.1348  13.1397  13.1592  13.1803
    13.1803  13.2016  13.2016  13.2034  13.2193  13.2542  13.2542  13.5731
    13.5731  14.1632  14.1832  14.1832  14.7550  14.7550  14.8635  14.8635
    14.8736  14.9340  14.9340  14.9706  14.9706  15.0042  15.0177  15.0833
    15.0833  15.1379  15.1419  15.1419  15.2290  15.3295  15.3295  15.3678
    15.3678  15.3905  15.4473  15.4473  15.5230  15.5879  15.5879  15.7101
    15.7101  15.7505  15.8235  16.0404  16.0404  16.0593  16.1329  22.3767
    22.3767

          k =-0.2500 0.0000 0.2500 (  6500 PWs)   bands (ev):

   -88.0711 -72.3846 -72.2599 -72.2533 -72.2526 -72.2038 -72.1741 -72.1736
   -72.1706 -72.1121 -72.1111 -72.1103 -71.9076 -71.9073 -71.9034 -48.2889
   -48.2855 -48.1736 -38.4848 -38.3940 -38.3937 -38.3531 -38.3421 -38.3411
   -38.3132 -38.2995 -38.2883 -38.2866 -38.2736 -38.2633 -38.2548 -38.2399
   -38.2346 -38.2307 -38.2102 -38.1921 -38.1886 -38.1562 -38.1506 -38.1404
   -38.1277 -38.1132 -38.0998 -38.0963 -38.0826 -38.0696 -38.0668 -38.0637
   -38.0517 -38.0427 -38.0417 -37.9635 -37.9323 -37.9285 -37.8585 -37.8499
   -37.8207 -37.8176 -37.8127 -37.8072   8.6824  10.6166  10.8452  11.4135
    11.6877  11.7005  11.7253  11.7663  11.7833  11.9292  11.9437  11.9972
    12.2282  12.2427  12.4976  12.5637  12.6010  12.7148  12.7722  12.8263
    12.8526  12.8979  12.9725  13.0066  13.0168  13.0309  13.2162  13.3036
    13.4119  13.4343  13.5097  13.5391  13.6323  13.6652  13.7118  13.7738
    13.8052  13.8926  13.9138  14.0319  14.1049  14.1943  14.2689  14.3346
    14.3692  14.3808  14.4202  14.4387  14.4612  14.5212  14.5882  14.6206
    14.6616  14.7745  14.8262  14.8577  14.9086  14.9407  15.0084  15.0456
    15.0728  15.1221  15.1430  15.1636  15.1742  15.2140  15.2546  15.3104
    15.3487  15.4045  15.4394  15.4590  15.5221  15.5382  15.6021  15.6296
    15.6956  15.7739  16.2216  16.5292  16.5649  17.5031  17.6659  17.8442
    18.0744

          k = 0.2500-0.2500 0.2500 (  6493 PWs)   bands (ev):

   -88.0711 -72.3845 -72.2590 -72.2536 -72.2530 -72.2039 -72.1741 -72.1732
   -72.1709 -72.1121 -72.1111 -72.1102 -71.9074 -71.9069 -71.9040 -48.2846
   -48.2843 -48.1747 -38.4834 -38.3895 -38.3879 -38.3539 -38.3392 -38.3376
   -38.3052 -38.3025 -38.2895 -38.2880 -38.2796 -38.2639 -38.2589 -38.2393
   -38.2327 -38.2285 -38.2043 -38.1961 -38.1813 -38.1582 -38.1540 -38.1368
   -38.1312 -38.1235 -38.1199 -38.0946 -38.0921 -38.0671 -38.0637 -38.0530
   -38.0445 -38.0415 -38.0407 -37.9596 -37.9319 -37.9319 -37.8548 -37.8419
   -37.8257 -37.8194 -37.8110 -37.8106   8.9748  10.8222  10.8715  11.1275
    11.5863  11.6093  11.7410  11.8921  11.9322  12.0427  12.1223  12.1296
    12.3846  12.3911  12.5300  12.5567  12.5789  12.7327  12.7386  12.8306
    12.8601  12.9001  12.9320  13.0273  13.0506  13.1105  13.1264  13.3186
    13.3240  13.3504  13.3772  13.4300  13.4557  13.5850  13.6019  13.7139
    13.7306  13.7522  13.7585  13.8942  13.9642  14.0077  14.1286  14.1665
    14.2104  14.2124  14.3736  14.4523  14.4599  14.5433  14.5524  14.6703
    14.7132  14.7414  14.7996  14.8817  14.9030  14.9324  14.9834  14.9931
    15.0408  15.0819  15.1074  15.1196  15.1523  15.1698  15.2068  15.2098
    15.3253  15.3352  15.3864  15.4705  15.5292  15.5747  15.6124  15.6933
    15.7451  15.8630  15.8666  16.5532  16.5544  16.6696  18.4697  18.5296
    18.7730

          k = 0.2500-0.2500-0.5000 (  6456 PWs)   bands (ev):

   -88.0710 -72.3845 -72.2576 -72.2548 -72.2530 -72.2039 -72.1740 -72.1727
   -72.1713 -72.1121 -72.1112 -72.1101 -71.9073 -71.9059 -71.9049 -48.2754
   -48.2748 -48.1670 -38.4810 -38.3847 -38.3808 -38.3549 -38.3366 -38.3337
   -38.3066 -38.3000 -38.2895 -38.2839 -38.2788 -38.2623 -38.2583 -38.2358
   -38.2315 -38.2286 -38.1961 -38.1934 -38.1750 -38.1636 -38.1490 -38.1416
   -38.1358 -38.1272 -38.1178 -38.1045 -38.0936 -38.0681 -38.0601 -38.0489
   -38.0430 -38.0391 -38.0274 -37.9524 -37.9371 -37.9310 -37.8452 -37.8378
   -37.8286 -37.8206 -37.8127 -37.8103   9.6856   9.9162  11.2512  11.3504
    11.3528  11.6162  12.1194  12.1465  12.1739  12.1982  12.2309  12.2475
    12.2933  12.3736  12.3979  12.5163  12.5587  12.6928  12.7368  12.8479
    12.9329  12.9774  13.0054  13.0337  13.0771  13.1138  13.1552  13.2077
    13.2676  13.3290  13.3671  13.4131  13.4407  13.4596  13.5046  13.5175
    13.5398  13.5479  13.5866  13.5925  13.7154  13.7872  13.8097  13.9619
    14.0657  14.2324  14.3336  14.4006  14.5355  14.5729  14.6420  14.6589
    14.7036  14.7449  14.7926  14.8039  14.8143  14.9475  14.9711  15.0257
    15.0392  15.0699  15.1257  15.1431  15.1615  15.1824  15.2046  15.2543
    15.2710  15.3475  15.3862  15.4577  15.4686  15.6286  15.7085  15.8120
    15.8640  15.8694  15.8893  16.0296  16.0504  17.6817  17.8696  19.1689
    19.2448

 ------ SPIN DOWN ----------


          k = 0.0000 0.0000 0.0000 (  6451 PWs)   bands (ev):

   -86.7308 -68.9362 -68.9154 -68.9154 -68.8848 -68.8682 -68.8496 -68.8496
   -68.8431 -68.8431 -68.8413 -68.8370 -68.8370 -68.8227 -68.7960 -46.9247
   -46.9247 -46.8525 -35.2012 -35.1886 -35.1886 -35.1572 -35.1390 -35.1390
   -35.0693 -35.0678 -35.0678 -35.0214 -35.0148 -35.0148 -35.0025 -35.0025
   -34.9993 -34.9970 -34.9970 -34.9803 -34.9698 -34.9698 -34.9616 -34.9593
   -34.9544 -34.9544 -34.9460 -34.9429 -34.9429 -34.9281 -34.9160 -34.9160
   -34.8991 -34.8991 -34.8838 -34.8475 -34.8220 -34.8220 -34.8088 -34.8088
   -34.7849 -34.7782 -34.7782 -34.7720   8.2170  12.1774  12.2448  12.2448
    12.3481  12.3481  12.5169  12.9111  12.9111  13.0131  13.0308  13.0308
    13.5847  13.7559  13.7559  14.3310  14.3310  14.4329  14.7082  14.7082
    14.7452  14.9170  14.9170  14.9853  15.2048  15.2048  15.3689  15.4654
    15.4654  15.6880  15.7338  15.9089  16.0640  16.0640  16.1498  16.1498
    16.3644  16.3644  16.3928  16.4777  16.4777  16.4815  16.5403  16.5403
    16.5748  16.7494  16.7494  16.8927  17.0257  17.0257  17.0660  17.2874
    17.2874  17.3345  17.3345  17.4178  17.5600  17.5600  17.6493  17.8946
    17.9891  17.9891  18.0353  18.1032  18.1032  18.2225  18.2225  18.3555
    18.3555  18.3981  18.4095  18.4137  18.4137  18.4374  18.5769  18.5769
    18.7814  18.7814  18.8195  18.8195  18.8856  18.8856  18.9197  18.9650
    19.0494

          k = 0.0000 0.0000 0.2500 (  6495 PWs)   bands (ev):

   -86.7308 -68.9332 -68.9177 -68.9154 -68.8851 -68.8700 -68.8543 -68.8490
   -68.8438 -68.8437 -68.8421 -68.8371 -68.8289 -68.8205 -68.7989 -46.9375
   -46.9332 -46.8629 -35.1931 -35.1819 -35.1798 -35.1472 -35.1360 -35.1353
   -35.0813 -35.0783 -35.0721 -35.0646 -35.0605 -35.0453 -35.0350 -35.0182
   -35.0136 -35.0039 -34.9814 -34.9763 -34.9732 -34.9654 -34.9588 -34.9504
   -34.9326 -34.9297 -34.9236 -34.9194 -34.9162 -34.9095 -34.9033 -34.8969
   -34.8948 -34.8850 -34.8781 -34.8546 -34.8347 -34.8315 -34.8212 -34.8181
   -34.8059 -34.7978 -34.7950 -34.7888   8.5211  10.7963  12.4050  12.4072
    12.5051  12.5715  12.9247  12.9562  12.9972  13.0010  13.2127  13.3304
    13.6819  13.8757  13.8813  14.2551  14.3421  14.3860  14.5313  14.7982
    14.8027  14.8599  14.9305  15.0176  15.0630  15.0852  15.3731  15.3793
    15.4473  15.4850  15.6298  15.8065  15.8945  15.9114  15.9841  16.0624
    16.0850  16.1207  16.1754  16.2391  16.2709  16.3430  16.3477  16.4892
    16.5104  16.6759  16.7820  16.8470  16.8773  16.9004  17.0871  17.1795
    17.2191  17.3045  17.3934  17.6577  17.7200  17.7367  17.8005  17.8715
    17.9282  17.9697  18.0555  18.0736  18.1545  18.1654  18.2724  18.3234
    18.3500  18.3729  18.4105  18.4861  18.5186  18.6283  18.6525  18.7039
    18.7060  18.7302  18.8338  18.8454  18.8662  18.9141  18.9519  18.9677
    18.9866

          k = 0.0000 0.0000-0.5000 (  6480 PWs)   bands (ev):

   -86.7308 -68.9281 -68.9221 -68.9153 -68.8854 -68.8720 -68.8567 -68.8483
   -68.8444 -68.8437 -68.8423 -68.8372 -68.8266 -68.8135 -68.8042 -46.9375
   -46.9288 -46.8600 -35.1462 -35.1453 -35.1410 -35.1374 -35.1362 -35.1217
   -35.1206 -35.1141 -35.1120 -35.0996 -35.0763 -35.0687 -35.0590 -35.0220
   -35.0164 -35.0030 -34.9912 -34.9873 -34.9800 -34.9683 -34.9619 -34.9450
   -34.9253 -34.9095 -34.9027 -34.8977 -34.8930 -34.8881 -34.8851 -34.8791
   -34.8736 -34.8734 -34.8561 -34.8513 -34.8446 -34.8373 -34.8288 -34.8232
   -34.8216 -34.8151 -34.8144 -34.8045   9.2876   9.5742  12.6240  12.6833
    12.7060  12.7543  12.8788  12.8939  12.9307  13.1451  13.5396  13.6308
    13.7683  13.9512  13.9990  14.0646  14.1176  14.3183  14.4506  14.5524
    14.8573  14.8593  14.9479  15.0799  15.1881  15.2739  15.3573  15.3864
    15.4303  15.4397  15.4465  15.5475  15.5792  15.5871  15.6474  15.8157
    15.8319  15.8571  15.9555  16.0026  16.0807  16.1548  16.1793  16.3297
    16.3483  16.6216  16.7566  17.0246  17.0719  17.2459  17.3289  17.3426
    17.4318  17.4608  17.5026  17.6312  17.6960  17.7574  17.7783  17.8236
    17.8971  17.9274  18.0790  18.2092  18.2465  18.3066  18.3269  18.3385
    18.3635  18.4011  18.4279  18.4546  18.4808  18.5005  18.5206  18.6078
    18.6079  18.7162  18.7791  18.8407  18.8451  18.9545  19.0125  19.0580
    19.0662

          k = 0.0000 0.2500 0.2500 (  6500 PWs)   bands (ev):

   -86.7308 -68.9303 -68.9188 -68.9163 -68.8855 -68.8691 -68.8593 -68.8514
   -68.8448 -68.8437 -68.8417 -68.8324 -68.8233 -68.8215 -68.8014 -46.9381
   -46.9325 -46.8665 -35.1853 -35.1665 -35.1567 -35.1346 -35.1263 -35.1255
   -35.1178 -35.1008 -35.0935 -35.0856 -35.0565 -35.0529 -35.0364 -35.0128
   -35.0041 -35.0020 -34.9941 -34.9770 -34.9762 -34.9715 -34.9674 -34.9583
   -34.9405 -34.9401 -34.9266 -34.9236 -34.9060 -34.8981 -34.8910 -34.8809
   -34.8788 -34.8659 -34.8585 -34.8568 -34.8397 -34.8306 -34.8301 -34.8230
   -34.8190 -34.8062 -34.7918 -34.7882   8.8241  10.9704  11.1018  12.4220
    12.6443  12.6765  13.0591  13.1796  13.2253  13.2566  13.4194  13.5265
    13.7982  13.9221  14.0459  14.2129  14.3267  14.3856  14.5473  14.7093
    14.7966  14.8143  14.8675  14.9482  15.0583  15.0642  15.1536  15.2699
    15.3611  15.4642  15.5377  15.6450  15.6931  15.7544  15.7926  15.8475
    15.9314  15.9550  16.0185  16.1185  16.1455  16.2008  16.2789  16.4213
    16.4989  16.6114  16.6963  16.8542  16.9651  17.0889  17.1353  17.1610
    17.2933  17.3240  17.4042  17.5176  17.5835  17.7385  17.8251  17.9265
    17.9980  18.0398  18.0462  18.1005  18.1308  18.2072  18.2284  18.2732
    18.2813  18.3634  18.3792  18.3899  18.4528  18.4554  18.4744  18.5545
    18.5611  18.6916  18.8415  18.9924  19.0414  19.5094  19.6335  19.7063
    19.7208

          k = 0.0000 0.2500-0.5000 (  6452 PWs)   bands (ev):

   -86.7308 -68.9261 -68.9216 -68.9167 -68.8859 -68.8706 -68.8599 -68.8543
   -68.8445 -68.8437 -68.8411 -68.8312 -68.8238 -68.8142 -68.8060 -46.9285
   -46.9224 -46.8528 -35.1565 -35.1480 -35.1414 -35.1360 -35.1331 -35.1286
   -35.1149 -35.1082 -35.0983 -35.0744 -35.0653 -35.0587 -35.0436 -35.0327
   -35.0153 -34.9948 -34.9929 -34.9824 -34.9762 -34.9748 -34.9693 -34.9496
   -34.9317 -34.9306 -34.9239 -34.9136 -34.9096 -34.8972 -34.8898 -34.8742
   -34.8723 -34.8653 -34.8526 -34.8471 -34.8322 -34.8305 -34.8239 -34.8196
   -34.8120 -34.8060 -34.8032 -34.7922   9.5720   9.8439  11.5497  11.8277
    12.8879  12.9449  13.1068  13.2034  13.5118  13.5792  13.6544  13.6896
    13.8520  13.9517  14.0312  14.0976  14.1908  14.3932  14.4560  14.6251
    14.7397  14.8343  14.9123  15.0060  15.0458  15.0802  15.1682  15.2193
    15.2672  15.3441  15.3866  15.4832  15.5068  15.6117  15.6304  15.6742
    15.7056  15.7736  15.8337  15.9165  16.0016  16.0711  16.1554  16.4203
    16.4845  16.5383  16.8619  16.9235  17.0269  17.1366  17.2096  17.3409
    17.4032  17.4295  17.4940  17.5422  17.5691  17.5973  17.7076  17.8150
    17.8819  17.9639  18.0189  18.0699  18.1235  18.2239  18.2582  18.2765
    18.3204  18.3462  18.3803  18.4025  18.4135  18.4355  18.4727  18.5344
    18.6412  18.7275  18.8554  19.2516  19.3235  19.3523  19.4068  20.1820
    20.4235

          k = 0.0000-0.5000-0.5000 (  6496 PWs)   bands (ev):

   -86.7308 -68.9223 -68.9217 -68.9193 -68.8864 -68.8672 -68.8639 -68.8595
   -68.8441 -68.8437 -68.8393 -68.8293 -68.8188 -68.8152 -68.8090 -46.9398
   -46.9318 -46.8629 -35.1617 -35.1446 -35.1420 -35.1414 -35.1398 -35.1313
   -35.1143 -35.1096 -35.0926 -35.0637 -35.0512 -35.0474 -35.0141 -35.0123
   -35.0086 -35.0006 -34.9972 -34.9938 -34.9886 -34.9864 -34.9765 -34.9640
   -34.9603 -34.9531 -34.9444 -34.9386 -34.9213 -34.9044 -34.8870 -34.8784
   -34.8697 -34.8684 -34.8561 -34.8424 -34.8337 -34.8271 -34.8227 -34.8182
   -34.8086 -34.7970 -34.7950 -34.7857  10.2954  10.4361  10.4426  10.9476
    13.3050  13.3125  13.3422  13.4838  13.5433  13.6281  13.6396  13.7684
    13.9742  13.9926  14.0448  14.0645  14.3996  14.4047  14.5238  14.5332
    14.6823  14.7173  14.7185  14.7837  14.8707  14.9801  15.0421  15.0440
    15.2587  15.2712  15.3458  15.3677  15.4075  15.4534  15.5098  15.5331
    15.6637  15.7013  15.7495  15.9041  16.0164  16.1048  16.1964  16.4383
    16.4674  16.6063  16.6269  16.9172  16.9246  16.9766  17.1401  17.2366
    17.2609  17.3852  17.4927  17.5836  17.6443  17.6922  17.7137  17.7801
    17.8278  17.8746  17.9419  17.9445  18.0579  18.1031  18.1581  18.2303
    18.2518  18.2827  18.2873  18.3152  18.3486  18.4194  18.4531  18.5804
    18.7339  18.8033  18.9910  19.8224  19.8901  20.0067  20.0954  20.1529
    20.2675

          k = 0.2500 0.2500 0.2500 (  6493 PWs)   bands (ev):

   -86.7308 -68.9274 -68.9185 -68.9185 -68.8861 -68.8662 -68.8603 -68.8603
   -68.8432 -68.8432 -68.8418 -68.8244 -68.8232 -68.8232 -68.8035 -46.9352
   -46.9352 -46.8624 -35.1745 -35.1382 -35.1382 -35.1285 -35.1285 -35.1223
   -35.1194 -35.1194 -35.1173 -35.0584 -35.0584 -35.0466 -35.0466 -35.0397
   -35.0270 -35.0088 -34.9927 -34.9927 -34.9769 -34.9730 -34.9730 -34.9375
   -34.9375 -34.9237 -34.9161 -34.9161 -34.9090 -34.9090 -34.9064 -34.8941
   -34.8775 -34.8551 -34.8551 -34.8523 -34.8312 -34.8260 -34.8260 -34.8198
   -34.8198 -34.8025 -34.8025 -34.7913   9.1202  11.2198  11.2198  11.4051
    12.6248  12.6248  12.7925  13.4263  13.4263  13.5886  13.6924  13.6924
    14.0189  14.0701  14.0701  14.0996  14.4043  14.4176  14.4176  14.7639
    14.7681  14.7681  14.8457  14.8457  15.0639  15.0683  15.0683  15.0728
    15.4071  15.4071  15.4274  15.4683  15.4683  15.6654  15.6940  15.6940
    15.7293  15.7600  15.7600  15.9795  15.9795  16.1639  16.1639  16.2940
    16.5033  16.6218  16.6218  17.0168  17.1533  17.1533  17.2454  17.2454
    17.2547  17.3856  17.5185  17.5185  17.5601  17.7527  17.7933  17.7933
    17.9307  18.0300  18.0300  18.1187  18.1919  18.1919  18.2526  18.2526
    18.3181  18.3181  18.3445  18.3995  18.3995  18.4971  18.4971  18.5635
    18.5664  18.5664  18.6557  18.9876  18.9876  19.0116  20.2382  20.2382
    20.3778

          k = 0.2500 0.2500-0.5000 (  6456 PWs)   bands (ev):

   -86.7308 -68.9243 -68.9206 -68.9182 -68.8866 -68.8689 -68.8612 -68.8596
   -68.8438 -68.8426 -68.8414 -68.8275 -68.8231 -68.8147 -68.8071 -46.9298
   -46.9242 -46.8527 -35.1519 -35.1463 -35.1456 -35.1287 -35.1238 -35.1187
   -35.1039 -35.1020 -35.0873 -35.0793 -35.0657 -35.0502 -35.0460 -35.0308
   -35.0255 -35.0165 -35.0060 -34.9993 -34.9833 -34.9800 -34.9790 -34.9417
   -34.9396 -34.9348 -34.9229 -34.9080 -34.9001 -34.8952 -34.8881 -34.8759
   -34.8748 -34.8601 -34.8556 -34.8521 -34.8324 -34.8259 -34.8235 -34.8187
   -34.8076 -34.8071 -34.8015 -34.7952   9.8557  10.1135  11.8006  11.8019
    11.9462  12.2125  13.2008  13.5181  13.6341  13.7095  13.7924  13.8209
    13.9624  14.0766  14.1842  14.2276  14.3170  14.4128  14.5818  14.6196
    14.6595  14.8655  14.8988  14.9257  14.9551  14.9959  15.0868  15.1258
    15.1774  15.2133  15.3441  15.4042  15.4221  15.4802  15.5547  15.5727
    15.6031  15.6991  15.7546  15.8124  15.8501  15.9137  15.9805  16.2718
    16.4277  16.5284  16.7438  16.8531  17.0375  17.1462  17.3020  17.3719
    17.4325  17.5231  17.5563  17.5776  17.7089  17.7158  17.8487  17.8646
    17.9854  18.0001  18.1029  18.1514  18.1811  18.2067  18.2231  18.2590
    18.2754  18.3259  18.3328  18.3506  18.3885  18.4529  18.4756  18.5188
    18.5374  18.5781  18.6155  18.6350  18.7053  19.8276  19.9862  20.7671
    20.8218

          k = 0.2500-0.5000-0.5000 (  6472 PWs)   bands (ev):

   -86.7308 -68.9216 -68.9213 -68.9188 -68.8873 -68.8680 -68.8664 -68.8580
   -68.8454 -68.8417 -68.8397 -68.8298 -68.8172 -68.8154 -68.8092 -46.9302
   -46.9295 -46.8576 -35.1460 -35.1323 -35.1307 -35.1235 -35.1219 -35.1171
   -35.1049 -35.0959 -35.0877 -35.0674 -35.0482 -35.0468 -35.0452 -35.0404
   -35.0367 -35.0307 -35.0281 -35.0211 -35.0070 -34.9888 -34.9843 -34.9398
   -34.9344 -34.9300 -34.9114 -34.9054 -34.9005 -34.8937 -34.8842 -34.8820
   -34.8699 -34.8632 -34.8543 -34.8474 -34.8323 -34.8321 -34.8262 -34.8205
   -34.8132 -34.8083 -34.8048 -34.7969  10.5660  10.7144  10.7144  11.1692
    12.3880  12.5318  12.5414  13.0871  13.8104  13.9372  14.0445  14.0876
    14.1087  14.2103  14.2702  14.3740  14.4870  14.4967  14.5655  14.5894
    14.7079  14.7146  14.8031  14.8403  14.8593  14.9762  14.9959  15.0797
    15.1380  15.2067  15.2432  15.2994  15.3370  15.4025  15.4538  15.4772
    15.5113  15.6016  15.6205  15.7217  15.7226  15.8125  15.9041  15.9460
    16.0632  16.6092  16.6247  16.7639  17.1367  17.1925  17.4035  17.4361
    17.5799  17.6656  17.6897  17.7216  17.7798  17.8700  17.8783  17.8961
    17.9099  17.9868  18.0211  18.0391  18.0824  18.1687  18.1777  18.2133
    18.2193  18.2532  18.2929  18.2976  18.3117  18.3684  18.3805  18.4471
    18.5159  18.5649  18.6651  19.0981  19.1479  19.1693  19.2192  21.6758
    21.8389

          k =-0.5000-0.5000-0.5000 (  6488 PWs)   bands (ev):

   -86.7308 -68.9209 -68.9209 -68.9182 -68.8882 -68.8686 -68.8686 -68.8561
   -68.8473 -68.8399 -68.8399 -68.8300 -68.8156 -68.8156 -68.8096 -46.9319
   -46.9319 -46.8596 -35.1073 -35.1073 -35.1014 -35.1014 -35.1010 -35.0940
   -35.0908 -35.0908 -35.0802 -35.0776 -35.0776 -35.0752 -35.0740 -35.0740
   -35.0644 -35.0553 -35.0399 -35.0399 -35.0206 -34.9874 -34.9874 -34.9316
   -34.9316 -34.9266 -34.8819 -34.8819 -34.8802 -34.8753 -34.8753 -34.8725
   -34.8674 -34.8632 -34.8632 -34.8494 -34.8408 -34.8372 -34.8372 -34.8259
   -34.8259 -34.8203 -34.8203 -34.8089  11.1914  11.4258  11.4258  11.4566
    11.5169  11.5553  11.5553  12.5409  13.9963  13.9963  14.1817  14.1817
    14.2737  14.5857  14.5857  14.6004  14.6307  14.7045  14.7045  14.7205
    14.7205  14.8355  14.8409  14.8409  14.8572  15.0220  15.0573  15.0573
    15.0815  15.0815  15.2568  15.2821  15.2821  15.3221  15.3406  15.3406
    15.3488  15.3701  15.4446  15.4446  15.4489  15.5488  15.5488  15.6263
    15.6263  16.6401  16.6401  16.6516  17.2901  17.2901  17.4981  17.4981
    17.7257  17.9336  17.9336  17.9375  17.9850  17.9850  18.0134  18.0134
    18.0636  18.1276  18.1276  18.1456  18.1456  18.1676  18.2041  18.2098
    18.2629  18.2629  18.2808  18.2808  18.2945  18.3472  18.3472  18.3849
    18.3899  18.3899  18.4114  18.5369  18.5369  18.5518  18.8202  23.4671
    23.4671

          k =-0.2500 0.0000 0.2500 (  6500 PWs)   bands (ev):

   -86.7308 -68.9309 -68.9175 -68.9168 -68.8854 -68.8710 -68.8556 -68.8529
   -68.8448 -68.8436 -68.8420 -68.8311 -68.8285 -68.8181 -68.8015 -46.9393
   -46.9359 -46.8618 -35.1805 -35.1746 -35.1712 -35.1439 -35.1235 -35.1223
   -35.1054 -35.1027 -35.0823 -35.0645 -35.0562 -35.0525 -35.0352 -35.0161
   -35.0063 -35.0032 -34.9875 -34.9839 -34.9766 -34.9717 -34.9676 -34.9628
   -34.9585 -34.9331 -34.9222 -34.9197 -34.9134 -34.9039 -34.8923 -34.8894
   -34.8809 -34.8663 -34.8599 -34.8521 -34.8430 -34.8324 -34.8271 -34.8196
   -34.8057 -34.8013 -34.7995 -34.7863   8.8258  10.8928  11.1862  12.4125
    12.6420  12.6665  13.0891  13.1891  13.2196  13.3268  13.3830  13.4805
    13.7915  13.9406  13.9833  14.1847  14.3146  14.4565  14.5154  14.7479
    14.7739  14.8247  14.8845  14.9030  15.0224  15.1402  15.1727  15.3495
    15.4008  15.4618  15.5258  15.6029  15.6732  15.7524  15.7855  15.8432
    15.9150  15.9829  16.0302  16.0480  16.0935  16.2108  16.3597  16.4495
    16.5161  16.5671  16.7048  16.8547  16.8907  17.0016  17.1347  17.2053
    17.2589  17.3013  17.3995  17.6210  17.7013  17.7270  17.8553  17.8908
    17.9572  17.9791  18.0618  18.1023  18.1498  18.2326  18.2389  18.2765
    18.2827  18.3164  18.3511  18.3839  18.4537  18.4722  18.5054  18.5217
    18.5554  18.5827  18.9883  19.0094  19.0591  19.4141  19.5201  19.7094
    19.8527

          k = 0.2500-0.2500 0.2500 (  6493 PWs)   bands (ev):

   -86.7308 -68.9286 -68.9185 -68.9169 -68.8860 -68.8708 -68.8604 -68.8526
   -68.8457 -68.8431 -68.8407 -68.8322 -68.8232 -68.8175 -68.8037 -46.9351
   -46.9347 -46.8628 -35.1665 -35.1603 -35.1581 -35.1318 -35.1246 -35.1217
   -35.1153 -35.1035 -35.0756 -35.0621 -35.0584 -35.0515 -35.0431 -35.0383
   -35.0230 -35.0196 -35.0094 -34.9939 -34.9880 -34.9776 -34.9748 -34.9344
   -34.9328 -34.9217 -34.9205 -34.9187 -34.9066 -34.9027 -34.8956 -34.8880
   -34.8795 -34.8653 -34.8570 -34.8558 -34.8382 -34.8240 -34.8230 -34.8189
   -34.8126 -34.8014 -34.8001 -34.7953   9.1236  11.1168  11.2207  11.5200
    12.5741  12.6097  12.8471  13.4818  13.5429  13.5871  13.6379  13.6584
    13.9154  13.9826  14.0881  14.1677  14.2817  14.3730  14.4969  14.6572
    14.7931  14.8285  14.8843  14.9191  14.9786  15.0627  15.1676  15.2866
    15.3096  15.3859  15.4010  15.4805  15.5431  15.6373  15.6583  15.6800
    15.7603  15.7742  15.8307  15.8691  15.9898  16.0547  16.1790  16.2984
    16.5287  16.5697  16.7165  16.8746  16.9116  17.1009  17.1361  17.3676
    17.3824  17.4409  17.4591  17.6220  17.6860  17.7609  17.8518  17.9295
    17.9311  17.9685  18.0295  18.1032  18.1229  18.2251  18.2614  18.2683
    18.2870  18.3319  18.3363  18.3707  18.4452  18.4768  18.4967  18.5264
    18.5366  18.5952  18.6289  18.9655  18.9676  19.0283  20.2028  20.2566
    20.4253

          k = 0.2500-0.2500-0.5000 (  6456 PWs)   bands (ev):

   -86.7308 -68.9248 -68.9213 -68.9168 -68.8865 -68.8706 -68.8636 -68.8529
   -68.8467 -68.8424 -68.8397 -68.8326 -68.8196 -68.8145 -68.8075 -46.9260
   -46.9256 -46.8552 -35.1495 -35.1429 -35.1406 -35.1358 -35.1250 -35.1175
   -35.1039 -35.0905 -35.0850 -35.0776 -35.0704 -35.0580 -35.0543 -35.0420
   -35.0259 -35.0133 -35.0077 -34.9961 -34.9908 -34.9855 -34.9795 -34.9427
   -34.9348 -34.9245 -34.9169 -34.8998 -34.8985 -34.8891 -34.8858 -34.8786
   -34.8723 -34.8633 -34.8557 -34.8497 -34.8408 -34.8296 -34.8232 -34.8164
   -34.8127 -34.8090 -34.7996 -34.7960   9.8563  10.1162  11.7160  11.8740
    11.9082  12.2686  13.1907  13.5040  13.6645  13.7977  13.8400  13.8714
    13.9208  13.9741  14.1520  14.1871  14.2916  14.3915  14.5190  14.5863
    14.7437  14.8509  14.9049  14.9482  14.9730  15.0258  15.1093  15.1412
    15.1866  15.2437  15.3612  15.4026  15.4553  15.4774  15.5511  15.5817
    15.5993  15.6829  15.7177  15.7497  15.8054  15.8882  15.9710  16.3578
    16.4452  16.5991  16.6781  16.8440  16.9881  17.0316  17.3211  17.3454
    17.4217  17.5232  17.5826  17.6618  17.7341  17.7897  17.8305  17.8834
    17.9588  18.0067  18.0666  18.1065  18.1736  18.1937  18.2557  18.2829
    18.3252  18.3426  18.3549  18.3812  18.3983  18.4462  18.4721  18.5264
    18.5408  18.5774  18.6104  18.6253  18.6564  19.7990  19.9650  20.7434
    20.8437

     the Fermi energy is    16.2439 ev

!    total energy              =   -3807.99350813 Ry
     estimated scf accuracy    <          1.7E-10 Ry
     smearing contrib. (-TS)   =       0.01587134 Ry
     internal energy E=F+TS    =   -3808.00937947 Ry

     The total energy is F=E-TS. E is the sum of the following terms:
     one-electron contribution =   -1953.97661657 Ry
     hartree contribution      =    1103.14676496 Ry
     xc contribution           =    -422.84195416 Ry
     ewald contribution        =   -2534.33757370 Ry

     total magnetization       =    36.63 Bohr mag/cell
     absolute magnetization    =    39.11 Bohr mag/cell

     convergence has been achieved in  33 iterations

     negative rho (up, down):  0.000E+00 2.508E-03

     Forces acting on atoms (cartesian axes, Ry/au):

     atom    1 type  2   force =    -0.00101979   -0.00101979   -0.00101979
     atom    2 type  1   force =    -0.00090928    0.00037067    0.00037067
     atom    3 type  1   force =     0.00037067   -0.00090928    0.00037067
     atom    4 type  1   force =     0.00058077    0.00058077   -0.00103425
     atom    5 type  1   force =     0.00037067    0.00037067   -0.00090928
     atom    6 type  1   force =     0.00058077   -0.00103425    0.00058077
     atom    7 type  1   force =    -0.00103425    0.00058077    0.00058077
     atom    8 type  1   force =    -0.00056450   -0.00056450   -0.00056450
     atom    9 type  1   force =     0.00014024    0.00042419    0.00042419
     atom   10 type  1   force =     0.00042419    0.00014024    0.00042419
     atom   11 type  1   force =     0.00036011    0.00036011   -0.00016417
     atom   12 type  1   force =     0.00042419    0.00042419    0.00014024
     atom   13 type  1   force =     0.00036011   -0.00016417    0.00036011
     atom   14 type  1   force =    -0.00016417    0.00036011    0.00036011
     atom   15 type  1   force =     0.00008027    0.00008027    0.00008027

     Total force =     0.003825     Total SCF correction =     0.000041
     Energy error            =      7.8E-05 Ry
     Gradient error          =      1.0E-03 Ry/Bohr

     number of scf cycles    =  11
     number of bfgs steps    =  10

     energy             old  =   -3807.9934296926 Ry
     energy             new  =   -3807.9935081317 Ry

     CASE: energy            _new < energy            _old

     new trust radius        =       0.0156187154 bohr
     new conv_thr            =       0.0000000100 Ry


ATOMIC_POSITIONS (crystal)
Ni               0.0017875791        0.0017875791        0.0017875791
Fe               0.4896441895        0.0106047778        0.0106047778
Fe               0.0106047778        0.4896441895        0.0106047778
Fe               0.4958430164        0.4958430164        0.0070392721
Fe               0.0106047778        0.0106047778        0.4896441895
Fe               0.4958430164        0.0070392721        0.4958430164
Fe               0.0070392721        0.4958430164        0.4958430164
Fe               0.4880552689        0.4880552689        0.4880552689
Fe               0.7539976319        0.2482320571        0.2482320571
Fe               0.2482320571        0.7539976319        0.2482320571
Fe               0.7480592301        0.7480592301        0.2518436242
Fe               0.2482320571        0.2482320571        0.7539976319
Fe               0.7480592301        0.2518436242        0.7480592301
Fe               0.2518436242        0.7480592301        0.7480592301
Fe               0.7521542713        0.7521542713        0.7521542713



     Writing config-only to output data dir ./outdir/fe15_ni1_end.save/ :
     XML data file
     NEW-OLD atomic charge density approx. for the potential

     Check: negative core charge=   -0.000004

     negative rho (up, down):  0.000E+00 2.798E-03
     Generating pointlists ...

     total cpu time spent up to now is     6268.0 secs

     per-process dynamical memory:   178.6 Mb

     Self-consistent Calculation

     iteration #  1     ecut=    45.00 Ry     beta= 0.10
     Davidson diagonalization with overlap
     ethr =  1.00E-06,  avg # of iterations =  8.4

     negative rho (up, down):  0.000E+00 2.798E-03

     total cpu time spent up to now is     6320.4 secs

     total energy              =   -3807.99475241 Ry
     estimated scf accuracy    <       0.01360535 Ry

     total magnetization       =    36.63 Bohr mag/cell
     absolute magnetization    =    39.12 Bohr mag/cell

     iteration #  2     ecut=    45.00 Ry     beta= 0.10
     Davidson diagonalization with overlap
     ethr =  5.62E-06,  avg # of iterations =  2.0

     negative rho (up, down):  0.000E+00 2.799E-03

     total cpu time spent up to now is     6343.3 secs

     total energy              =   -3807.98847141 Ry
     estimated scf accuracy    <       0.23312342 Ry

     total magnetization       =    36.62 Bohr mag/cell
     absolute magnetization    =    39.42 Bohr mag/cell

     iteration #  3     ecut=    45.00 Ry     beta= 0.10
     Davidson diagonalization with overlap
     ethr =  5.62E-06,  avg # of iterations =  2.0

     negative rho (up, down):  0.000E+00 2.795E-03

     total cpu time spent up to now is     6366.4 secs

     total energy              =   -3807.99193510 Ry
     estimated scf accuracy    <       0.00134873 Ry

     total magnetization       =    36.63 Bohr mag/cell
     absolute magnetization    =    39.11 Bohr mag/cell

     iteration #  4     ecut=    45.00 Ry     beta= 0.10
     Davidson diagonalization with overlap
     ethr =  5.57E-07,  avg # of iterations =  1.9

     negative rho (up, down):  0.000E+00 2.781E-03

     total cpu time spent up to now is     6387.6 secs

     total energy              =   -3807.99230130 Ry
     estimated scf accuracy    <       0.00013504 Ry

     total magnetization       =    36.63 Bohr mag/cell
     absolute magnetization    =    39.11 Bohr mag/cell

     iteration #  5     ecut=    45.00 Ry     beta= 0.10
     Davidson diagonalization with overlap
     ethr =  5.58E-08,  avg # of iterations =  2.3

     negative rho (up, down):  0.000E+00 2.769E-03

     total cpu time spent up to now is     6409.8 secs

     total energy              =   -3807.99248324 Ry
     estimated scf accuracy    <       0.00014586 Ry

     total magnetization       =    36.63 Bohr mag/cell
     absolute magnetization    =    39.11 Bohr mag/cell

     iteration #  6     ecut=    45.00 Ry     beta= 0.10
     Davidson diagonalization with overlap
     ethr =  5.58E-08,  avg # of iterations =  2.0

     negative rho (up, down):  0.000E+00 2.747E-03

     total cpu time spent up to now is     6431.6 secs

     total energy              =   -3807.99271722 Ry
     estimated scf accuracy    <       0.00009453 Ry

     total magnetization       =    36.63 Bohr mag/cell
     absolute magnetization    =    39.11 Bohr mag/cell

     iteration #  7     ecut=    45.00 Ry     beta= 0.10
     Davidson diagonalization with overlap
     ethr =  3.91E-08,  avg # of iterations =  2.0

     negative rho (up, down):  0.000E+00 2.748E-03

     total cpu time spent up to now is     6453.0 secs

     total energy              =   -3807.99287361 Ry
     estimated scf accuracy    <       0.00000640 Ry

     total magnetization       =    36.63 Bohr mag/cell
     absolute magnetization    =    39.11 Bohr mag/cell

     iteration #  8     ecut=    45.00 Ry     beta= 0.10
     Davidson diagonalization with overlap
     ethr =  2.65E-09,  avg # of iterations =  2.8

     negative rho (up, down):  0.000E+00 2.753E-03

     total cpu time spent up to now is     6475.5 secs

     total energy              =   -3807.99301446 Ry
     estimated scf accuracy    <       0.00000196 Ry

     total magnetization       =    36.63 Bohr mag/cell
     absolute magnetization    =    39.11 Bohr mag/cell

     iteration #  9     ecut=    45.00 Ry     beta= 0.10
     Davidson diagonalization with overlap
     ethr =  8.09E-10,  avg # of iterations =  2.9

     negative rho (up, down):  0.000E+00 2.757E-03

     total cpu time spent up to now is     6498.5 secs

     total energy              =   -3807.99313084 Ry
     estimated scf accuracy    <       0.00000549 Ry

     total magnetization       =    36.63 Bohr mag/cell
     absolute magnetization    =    39.11 Bohr mag/cell

     iteration # 10     ecut=    45.00 Ry     beta= 0.10
     Davidson diagonalization with overlap
     ethr =  8.09E-10,  avg # of iterations =  1.7

     negative rho (up, down):  0.000E+00 2.759E-03

     total cpu time spent up to now is     6519.9 secs

     total energy              =   -3807.99322226 Ry
     estimated scf accuracy    <       0.00000249 Ry

     total magnetization       =    36.63 Bohr mag/cell
     absolute magnetization    =    39.11 Bohr mag/cell

     iteration # 11     ecut=    45.00 Ry     beta= 0.10
     Davidson diagonalization with overlap
     ethr =  8.09E-10,  avg # of iterations =  2.0

     negative rho (up, down):  0.000E+00 2.760E-03

     total cpu time spent up to now is     6542.0 secs

     total energy              =   -3807.99328904 Ry
     estimated scf accuracy    <       0.00000053 Ry

     total magnetization       =    36.63 Bohr mag/cell
     absolute magnetization    =    39.11 Bohr mag/cell

     iteration # 12     ecut=    45.00 Ry     beta= 0.10
     Davidson diagonalization with overlap
     ethr =  2.19E-10,  avg # of iterations =  2.1

     negative rho (up, down):  0.000E+00 2.763E-03

     total cpu time spent up to now is     6564.8 secs

     total energy              =   -3807.99334820 Ry
     estimated scf accuracy    <       0.00000060 Ry

     total magnetization       =    36.63 Bohr mag/cell
     absolute magnetization    =    39.11 Bohr mag/cell

     iteration # 13     ecut=    45.00 Ry     beta= 0.10
     Davidson diagonalization with overlap
     ethr =  2.19E-10,  avg # of iterations =  2.4

     negative rho (up, down):  0.000E+00 2.767E-03

     total cpu time spent up to now is     6589.6 secs

     total energy              =   -3807.99338831 Ry
     estimated scf accuracy    <       0.00000607 Ry

     total magnetization       =    36.63 Bohr mag/cell
     absolute magnetization    =    39.11 Bohr mag/cell

     iteration # 14     ecut=    45.00 Ry     beta= 0.10
     Davidson diagonalization with overlap
     ethr =  2.19E-10,  avg # of iterations =  2.0

     negative rho (up, down):  0.000E+00 2.769E-03

     total cpu time spent up to now is     6613.0 secs

     total energy              =   -3807.99341822 Ry
     estimated scf accuracy    <       0.00000551 Ry

     total magnetization       =    36.63 Bohr mag/cell
     absolute magnetization    =    39.11 Bohr mag/cell

     iteration # 15     ecut=    45.00 Ry     beta= 0.10
     Davidson diagonalization with overlap
     ethr =  2.19E-10,  avg # of iterations =  3.2

     negative rho (up, down):  0.000E+00 2.771E-03

     total cpu time spent up to now is     6639.1 secs

     total energy              =   -3807.99345562 Ry
     estimated scf accuracy    <       0.00001174 Ry

     total magnetization       =    36.63 Bohr mag/cell
     absolute magnetization    =    39.11 Bohr mag/cell

     iteration # 16     ecut=    45.00 Ry     beta= 0.10
     Davidson diagonalization with overlap
     ethr =  2.19E-10,  avg # of iterations =  2.0

     negative rho (up, down):  0.000E+00 2.774E-03

     total cpu time spent up to now is     6662.8 secs

     total energy              =   -3807.99348257 Ry
     estimated scf accuracy    <       0.00000270 Ry

     total magnetization       =    36.63 Bohr mag/cell
     absolute magnetization    =    39.11 Bohr mag/cell

     iteration # 17     ecut=    45.00 Ry     beta= 0.10
     Davidson diagonalization with overlap
     ethr =  2.19E-10,  avg # of iterations =  2.3

     negative rho (up, down):  0.000E+00 2.774E-03

     total cpu time spent up to now is     6687.3 secs

     total energy              =   -3807.99350011 Ry
     estimated scf accuracy    <       0.00000107 Ry

     total magnetization       =    36.63 Bohr mag/cell
     absolute magnetization    =    39.11 Bohr mag/cell

     iteration # 18     ecut=    45.00 Ry     beta= 0.10
     Davidson diagonalization with overlap
     ethr =  2.19E-10,  avg # of iterations =  1.5

     negative rho (up, down):  0.000E+00 2.777E-03

     total cpu time spent up to now is     6707.9 secs

     total energy              =   -3807.99351563 Ry
     estimated scf accuracy    <       0.00000023 Ry

     total magnetization       =    36.63 Bohr mag/cell
     absolute magnetization    =    39.11 Bohr mag/cell

     iteration # 19     ecut=    45.00 Ry     beta= 0.10
     Davidson diagonalization with overlap
     ethr =  9.48E-11,  avg # of iterations =  2.1

     negative rho (up, down):  0.000E+00 2.776E-03

     total cpu time spent up to now is     6731.8 secs

     total energy              =   -3807.99352551 Ry
     estimated scf accuracy    <       0.00000511 Ry

     total magnetization       =    36.63 Bohr mag/cell
     absolute magnetization    =    39.11 Bohr mag/cell

     iteration # 20     ecut=    45.00 Ry     beta= 0.10
     Davidson diagonalization with overlap
     ethr =  9.48E-11,  avg # of iterations =  2.1

     negative rho (up, down):  0.000E+00 2.777E-03

     total cpu time spent up to now is     6755.1 secs

     total energy              =   -3807.99353541 Ry
     estimated scf accuracy    <       0.00000039 Ry

     total magnetization       =    36.63 Bohr mag/cell
     absolute magnetization    =    39.11 Bohr mag/cell

     iteration # 21     ecut=    45.00 Ry     beta= 0.10
     Davidson diagonalization with overlap
     ethr =  9.48E-11,  avg # of iterations =  2.0

     negative rho (up, down):  0.000E+00 2.777E-03

     total cpu time spent up to now is     6777.7 secs

     total energy              =   -3807.99354465 Ry
     estimated scf accuracy    <       0.00000024 Ry

     total magnetization       =    36.63 Bohr mag/cell
     absolute magnetization    =    39.11 Bohr mag/cell

     iteration # 22     ecut=    45.00 Ry     beta= 0.10
     Davidson diagonalization with overlap
     ethr =  9.48E-11,  avg # of iterations =  1.9

     negative rho (up, down):  0.000E+00 2.778E-03

     Magnetic moment per site  (integrated on atomic sphere of radius R)
     atom   1 (R=0.176)  charge= 16.5653  magn=  0.9602
     atom   2 (R=0.176)  charge= 14.2936  magn=  2.6169
     atom   3 (R=0.176)  charge= 14.2936  magn=  2.6169
     atom   4 (R=0.176)  charge= 14.2945  magn=  2.6466
     atom   5 (R=0.176)  charge= 14.2936  magn=  2.6169
     atom   6 (R=0.176)  charge= 14.2945  magn=  2.6466
     atom   7 (R=0.176)  charge= 14.2945  magn=  2.6466
     atom   8 (R=0.176)  charge= 14.2811  magn=  2.6982
     atom   9 (R=0.176)  charge= 14.3639  magn=  2.4410
     atom  10 (R=0.176)  charge= 14.3639  magn=  2.4410
     atom  11 (R=0.176)  charge= 14.2957  magn=  2.6621
     atom  12 (R=0.176)  charge= 14.3639  magn=  2.4410
     atom  13 (R=0.176)  charge= 14.2957  magn=  2.6621
     atom  14 (R=0.176)  charge= 14.2957  magn=  2.6621
     atom  15 (R=0.176)  charge= 14.2480  magn=  2.7933

     total cpu time spent up to now is     6799.5 secs

     End of self-consistent calculation

 ------ SPIN UP ------------


          k = 0.0000 0.0000 0.0000 (  6451 PWs)   bands (ev):

   -88.0727 -72.3872 -72.2634 -72.2537 -72.2537 -72.2059 -72.1668 -72.1668
   -72.1635 -72.1170 -72.1164 -72.1164 -71.9064 -71.9064 -71.9007 -48.2750
   -48.2750 -48.1666 -38.4885 -38.3994 -38.3994 -38.3476 -38.3438 -38.3438
   -38.3221 -38.2890 -38.2890 -38.2865 -38.2638 -38.2570 -38.2461 -38.2461
   -38.2316 -38.2316 -38.2067 -38.1782 -38.1782 -38.1525 -38.1525 -38.1206
   -38.1206 -38.0977 -38.0962 -38.0868 -38.0868 -38.0754 -38.0693 -38.0693
   -38.0590 -38.0590 -38.0544 -37.9714 -37.9189 -37.9189 -37.8627 -37.8627
   -37.8045 -37.8031 -37.8021 -37.8021   8.0826  11.4033  11.4218  11.4218
    11.4635  11.5109  11.5109  11.5493  11.5493  11.6709  11.7496  11.7496
    12.0841  12.0841  12.4154  12.7178  12.7260  12.7260  12.8147  12.8147
    12.8365  12.9570  12.9570  12.9891  13.1673  13.1673  13.2193  13.2403
    13.4350  13.4350  13.4709  13.6016  13.6016  13.7917  13.8041  13.8041
    14.0480  14.0480  14.0675  14.1220  14.1283  14.1283  14.1881  14.1881
    14.2647  14.5435  14.5707  14.5707  14.7339  14.8262  14.8262  14.8528
    14.8528  14.9476  15.0014  15.0074  15.0074  15.0760  15.0760  15.1318
    15.1318  15.1991  15.1991  15.2098  15.2098  15.2256  15.2439  15.4538
    15.5791  15.5791  15.9919  15.9919  16.0417  16.0417  16.1356  16.1356
    16.1473  16.1805  16.2897  16.2897  16.3537  16.5640  16.6240  16.6240
    16.6662

          k = 0.0000 0.0000 0.2500 (  6495 PWs)   bands (ev):

   -88.0728 -72.3872 -72.2623 -72.2549 -72.2538 -72.2060 -72.1669 -72.1667
   -72.1637 -72.1174 -72.1166 -72.1162 -71.9066 -71.9058 -71.9013 -48.2881
   -48.2837 -48.1773 -38.4897 -38.4000 -38.3980 -38.3527 -38.3451 -38.3445
   -38.3209 -38.2957 -38.2872 -38.2820 -38.2707 -38.2576 -38.2515 -38.2407
   -38.2315 -38.2304 -38.2105 -38.1917 -38.1892 -38.1648 -38.1476 -38.1416
   -38.1237 -38.1121 -38.0964 -38.0899 -38.0824 -38.0685 -38.0634 -38.0621
   -38.0553 -38.0455 -38.0434 -37.9680 -37.9291 -37.9247 -37.8600 -37.8575
   -37.8149 -37.8144 -37.8102 -37.8089   8.3827  10.5370  11.5073  11.5076
    11.5400  11.5820  11.5998  11.6301  11.6966  11.7772  11.8269  11.8681
    12.1378  12.1778  12.4389  12.6367  12.6735  12.6825  12.7441  12.7704
    12.8664  12.8839  12.9324  13.1031  13.1060  13.1542  13.2088  13.2477
    13.3314  13.5734  13.5735  13.6011  13.7260  13.7384  13.7638  13.7866
    13.8182  13.8533  13.9048  14.0831  14.0880  14.2783  14.3112  14.3574
    14.3751  14.4667  14.5358  14.5820  14.6071  14.6098  14.6385  14.7132
    14.7831  14.8620  14.9324  14.9563  15.0137  15.0199  15.0772  15.1016
    15.1079  15.1344  15.1572  15.1588  15.1818  15.1900  15.2331  15.2995
    15.3186  15.4654  15.5243  15.5304  15.5994  15.9001  16.0510  16.0775
    16.1056  16.1620  16.2781  16.2841  16.4386  16.6442  16.7904  16.8636
    17.0146

          k = 0.0000 0.0000-0.5000 (  6480 PWs)   bands (ev):

   -88.0728 -72.3871 -72.2607 -72.2566 -72.2538 -72.2060 -72.1668 -72.1665
   -72.1639 -72.1176 -72.1166 -72.1160 -71.9066 -71.9045 -71.9025 -48.2880
   -48.2790 -48.1745 -38.4876 -38.3952 -38.3889 -38.3553 -38.3415 -38.3386
   -38.3000 -38.2972 -38.2937 -38.2915 -38.2756 -38.2523 -38.2493 -38.2414
   -38.2340 -38.2274 -38.2180 -38.1984 -38.1958 -38.1829 -38.1511 -38.1458
   -38.1369 -38.1109 -38.0922 -38.0920 -38.0795 -38.0679 -38.0598 -38.0566
   -38.0529 -38.0336 -38.0280 -37.9611 -37.9359 -37.9248 -37.8536 -37.8450
   -37.8259 -37.8222 -37.8115 -37.8092   9.1390   9.4047  11.6255  11.6431
    11.6488  11.7095  11.7691  11.7932  11.8422  11.8794  11.9440  12.0649
    12.0713  12.2030  12.3250  12.3558  12.3952  12.6177  12.6311  12.6406
    12.9688  12.9757  13.2154  13.2299  13.2844  13.2868  13.2886  13.4182
    13.4469  13.4893  13.5641  13.5931  13.6118  13.6384  13.6541  13.6993
    13.7537  13.7801  13.8217  13.9403  13.9575  14.1276  14.1814  14.2020
    14.2509  14.3038  14.3831  14.4675  14.5070  14.5354  14.6189  14.6454
    14.6924  14.7589  14.7795  14.9102  15.0168  15.0540  15.0727  15.0801
    15.0962  15.1011  15.1551  15.1716  15.1771  15.2023  15.2171  15.2528
    15.4010  15.5182  15.6488  15.6614  15.6779  15.7357  15.7639  15.8224
    15.9138  16.2453  16.4310  16.4659  16.5440  16.6041  16.6671  16.7206
    16.7390

          k = 0.0000 0.2500 0.2500 (  6500 PWs)   bands (ev):

   -88.0728 -72.3871 -72.2612 -72.2555 -72.2544 -72.2060 -72.1669 -72.1662
   -72.1641 -72.1174 -72.1168 -72.1161 -71.9062 -71.9054 -71.9021 -48.2888
   -48.2829 -48.1809 -38.4890 -38.3962 -38.3932 -38.3549 -38.3420 -38.3404
   -38.3157 -38.2995 -38.2860 -38.2859 -38.2801 -38.2580 -38.2558 -38.2341
   -38.2327 -38.2295 -38.2061 -38.2040 -38.1876 -38.1626 -38.1499 -38.1408
   -38.1276 -38.1226 -38.1054 -38.0972 -38.0808 -38.0660 -38.0658 -38.0534
   -38.0495 -38.0467 -38.0434 -37.9610 -37.9301 -37.9271 -37.8532 -37.8480
   -37.8238 -37.8147 -37.8133 -37.8090   8.6822  10.6526  10.8037  11.4224
    11.6863  11.6919  11.7174  11.7395  11.8175  11.9188  11.9563  12.0041
    12.2448  12.2491  12.4926  12.5529  12.6054  12.6999  12.7840  12.8155
    12.8660  12.9174  12.9657  12.9664  13.0242  13.0385  13.2185  13.2753
    13.3976  13.4131  13.5121  13.5787  13.5920  13.6853  13.7085  13.7979
    13.8058  13.9081  13.9271  14.0459  14.1113  14.2160  14.2478  14.2942
    14.3237  14.3331  14.4050  14.4333  14.5268  14.5654  14.6318  14.6381
    14.6898  14.7403  14.7889  14.8183  14.8942  14.9568  15.0140  15.0326
    15.0678  15.0824  15.1104  15.1691  15.1963  15.2162  15.2666  15.3485
    15.3544  15.3964  15.4041  15.4801  15.5190  15.5226  15.5727  15.7254
    15.8035  15.8133  16.0775  16.5283  16.5517  17.6022  17.6507  17.8415
    17.9940

          k = 0.0000 0.2500-0.5000 (  6452 PWs)   bands (ev):

   -88.0727 -72.3870 -72.2598 -72.2565 -72.2545 -72.2060 -72.1669 -72.1660
   -72.1641 -72.1176 -72.1167 -72.1158 -71.9059 -71.9045 -71.9030 -48.2789
   -48.2726 -48.1670 -38.4851 -38.3899 -38.3851 -38.3558 -38.3391 -38.3377
   -38.3052 -38.2983 -38.2928 -38.2865 -38.2800 -38.2621 -38.2511 -38.2391
   -38.2280 -38.2245 -38.2099 -38.1938 -38.1896 -38.1638 -38.1479 -38.1457
   -38.1260 -38.1138 -38.0966 -38.0906 -38.0783 -38.0725 -38.0648 -38.0604
   -38.0532 -38.0414 -38.0366 -37.9516 -37.9339 -37.9259 -37.8456 -37.8371
   -37.8246 -37.8208 -37.8112 -37.8070   9.4116   9.6576  11.0634  11.2435
    11.8405  11.8757  11.9674  11.9986  12.0237  12.0320  12.0699  12.1598
    12.1840  12.2891  12.3492  12.4246  12.4650  12.6466  12.7365  12.7481
    12.9664  12.9933  13.0635  13.0949  13.1260  13.1364  13.1981  13.2889
    13.3550  13.4069  13.5299  13.5472  13.5685  13.6006  13.6460  13.6641
    13.6854  13.7721  13.7910  13.8432  13.9204  13.9584  14.0106  14.0981
    14.1619  14.3264  14.4397  14.4572  14.4685  14.5164  14.6372  14.6586
    14.6859  14.7195  14.7560  14.7646  14.8117  14.8703  14.9150  14.9950
    15.0440  15.0499  15.1121  15.1522  15.1701  15.2018  15.2257  15.2335
    15.2987  15.3581  15.3770  15.4011  15.4719  15.4748  15.5268  15.6449
    15.7653  15.9560  16.0962  17.0260  17.0651  17.1489  17.2250  18.7265
    18.8125

          k = 0.0000-0.5000-0.5000 (  6496 PWs)   bands (ev):

   -88.0728 -72.3871 -72.2585 -72.2571 -72.2554 -72.2061 -72.1670 -72.1654
   -72.1647 -72.1177 -72.1170 -72.1158 -71.9049 -71.9045 -71.9042 -48.2903
   -48.2823 -48.1774 -38.4847 -38.3881 -38.3800 -38.3604 -38.3385 -38.3373
   -38.3154 -38.2963 -38.2959 -38.2890 -38.2889 -38.2707 -38.2546 -38.2366
   -38.2316 -38.2259 -38.2036 -38.1926 -38.1880 -38.1539 -38.1491 -38.1320
   -38.1248 -38.1028 -38.1008 -38.0942 -38.0925 -38.0918 -38.0789 -38.0717
   -38.0608 -38.0459 -38.0457 -37.9443 -37.9368 -37.9304 -37.8397 -37.8303
   -37.8298 -37.8197 -37.8179 -37.8065  10.0919  10.1595  10.2073  10.6504
    12.0559  12.0777  12.1066  12.1504  12.2201  12.2379  12.2477  12.3001
    12.3535  12.3816  12.5351  12.5814  12.6322  12.6348  12.6698  12.6773
    12.8273  12.8717  12.8721  12.8996  12.9510  12.9953  13.0121  13.2471
    13.3362  13.3762  13.4338  13.4393  13.5135  13.5296  13.5406  13.5578
    13.6010  13.6826  13.7144  13.7396  13.7747  13.7757  13.8684  14.0580
    14.1226  14.3050  14.3155  14.4246  14.4879  14.5689  14.6024  14.6425
    14.6855  14.6921  14.7276  14.7412  14.7877  14.8024  14.8349  14.9109
    14.9249  14.9599  15.0057  15.0330  15.0535  15.0960  15.1357  15.1854
    15.1986  15.2064  15.2289  15.3075  15.3838  15.4273  15.4472  15.6630
    15.7790  16.0471  16.2030  17.8322  17.8825  17.9679  18.0570  18.1356
    18.2902

          k = 0.2500 0.2500 0.2500 (  6493 PWs)   bands (ev):

   -88.0728 -72.3871 -72.2602 -72.2554 -72.2554 -72.2061 -72.1662 -72.1662
   -72.1648 -72.1168 -72.1168 -72.1168 -71.9053 -71.9053 -71.9029 -48.2857
   -48.2857 -48.1768 -38.4870 -38.3897 -38.3897 -38.3565 -38.3375 -38.3375
   -38.3081 -38.2982 -38.2893 -38.2878 -38.2878 -38.2552 -38.2552 -38.2365
   -38.2345 -38.2345 -38.2019 -38.2019 -38.1919 -38.1558 -38.1558 -38.1372
   -38.1372 -38.1204 -38.1107 -38.0830 -38.0830 -38.0708 -38.0708 -38.0660
   -38.0438 -38.0438 -38.0433 -37.9553 -37.9306 -37.9306 -37.8434 -37.8434
   -37.8297 -37.8139 -37.8119 -37.8119   8.9743  10.8718  10.8718  11.0693
    11.6212  11.6212  11.6918  11.9044  11.9044  12.0204  12.1420  12.1420
    12.4026  12.4026  12.5272  12.5552  12.6063  12.7160  12.7160  12.8324
    12.8324  12.9188  12.9629  13.0135  13.0135  13.1208  13.1208  13.2868
    13.3589  13.3589  13.3593  13.4272  13.4272  13.5994  13.5994  13.7219
    13.7219  13.7391  13.8050  13.9029  13.9029  13.9730  14.1593  14.1593
    14.2410  14.2410  14.3479  14.5444  14.5444  14.5471  14.5891  14.6884
    14.6884  14.7807  14.8193  14.8393  14.8393  14.9171  14.9769  14.9769
    15.0489  15.0561  15.0561  15.1701  15.1701  15.2021  15.2021  15.2061
    15.2277  15.3210  15.3210  15.5287  15.5287  15.6118  15.6898  15.6898
    15.7381  15.7381  15.8636  16.5741  16.5741  16.6454  18.5270  18.5270
    18.7167

          k = 0.2500 0.2500-0.5000 (  6456 PWs)   bands (ev):

   -88.0727 -72.3870 -72.2591 -72.2564 -72.2553 -72.2061 -72.1664 -72.1661
   -72.1646 -72.1174 -72.1167 -72.1161 -71.9053 -71.9046 -71.9035 -48.2802
   -48.2745 -48.1669 -38.4837 -38.3858 -38.3820 -38.3565 -38.3369 -38.3358
   -38.2980 -38.2972 -38.2937 -38.2934 -38.2826 -38.2591 -38.2590 -38.2333
   -38.2299 -38.2270 -38.2057 -38.1975 -38.1828 -38.1540 -38.1522 -38.1492
   -38.1240 -38.1184 -38.1020 -38.0978 -38.0957 -38.0761 -38.0635 -38.0571
   -38.0442 -38.0437 -38.0341 -37.9489 -37.9353 -37.9295 -37.8441 -37.8353
   -37.8283 -37.8196 -37.8105 -37.8079   9.6864   9.9153  11.2945  11.3097
    11.3772  11.5781  12.1365  12.1557  12.1908  12.1984  12.2005  12.2203
    12.3030  12.3600  12.4083  12.5230  12.5581  12.6753  12.7503  12.8518
    12.9572  12.9926  13.0023  13.0409  13.0458  13.1116  13.1565  13.1862
    13.2336  13.2782  13.3724  13.4367  13.4489  13.4712  13.5103  13.5324
    13.5583  13.5740  13.5833  13.6227  13.6984  13.7765  13.8123  13.9479
    14.0768  14.2123  14.3445  14.4010  14.5602  14.6085  14.6258  14.6984
    14.7262  14.7307  14.7639  14.8194  14.8454  14.9186  14.9654  15.0323
    15.0443  15.0763  15.1203  15.1293  15.1681  15.1938  15.1964  15.2473
    15.2543  15.3318  15.3751  15.4219  15.4635  15.7065  15.7090  15.7733
    15.8183  15.8446  15.9079  15.9956  16.0498  17.7068  17.8975  19.2286
    19.2467

          k = 0.2500-0.5000-0.5000 (  6472 PWs)   bands (ev):

   -88.0728 -72.3870 -72.2580 -72.2570 -72.2558 -72.2062 -72.1667 -72.1655
   -72.1650 -72.1174 -72.1169 -72.1160 -71.9050 -71.9042 -71.9041 -48.2806
   -48.2799 -48.1719 -38.4824 -38.3807 -38.3762 -38.3582 -38.3362 -38.3352
   -38.3059 -38.2927 -38.2908 -38.2866 -38.2863 -38.2650 -38.2574 -38.2396
   -38.2287 -38.2243 -38.2012 -38.1974 -38.1762 -38.1537 -38.1529 -38.1367
   -38.1325 -38.1254 -38.1230 -38.1147 -38.1098 -38.0648 -38.0586 -38.0537
   -38.0465 -38.0374 -38.0345 -37.9458 -37.9397 -37.9343 -37.8417 -37.8345
   -37.8339 -37.8195 -37.8128 -37.8099  10.3562  10.4323  10.4712  10.8643
    11.8013  11.9197  11.9281  12.1651  12.2473  12.2726  12.3383  12.5510
    12.5578  12.6016  12.6271  12.6720  12.6803  12.7064  12.7071  12.7750
    12.8071  12.8640  12.8703  12.9057  12.9473  12.9666  13.0077  13.1072
    13.1421  13.1911  13.1997  13.2940  13.3095  13.3240  13.3575  13.3719
    13.4141  13.4380  13.4522  13.5463  13.5678  13.5772  13.6428  13.6704
    13.7708  14.2188  14.2199  14.2845  14.6914  14.6955  14.7226  14.8017
    14.8151  14.8434  14.8691  14.8794  14.9422  14.9459  15.0012  15.0285
    15.0584  15.1115  15.1277  15.1351  15.1774  15.2055  15.2078  15.2173
    15.2500  15.2557  15.2976  15.3598  15.3874  15.4210  15.4922  15.6094
    15.6566  15.8190  15.9418  16.6930  16.7416  16.7520  16.8739  20.1739
    20.3088

          k =-0.5000-0.5000-0.5000 (  6488 PWs)   bands (ev):

   -88.0727 -72.3869 -72.2570 -72.2569 -72.2569 -72.2062 -72.1659 -72.1656
   -72.1656 -72.1168 -72.1168 -72.1166 -71.9051 -71.9041 -71.9041 -48.2824
   -48.2824 -48.1739 -38.4805 -38.3717 -38.3717 -38.3586 -38.3329 -38.3329
   -38.3052 -38.2877 -38.2877 -38.2838 -38.2806 -38.2568 -38.2568 -38.2488
   -38.2263 -38.2263 -38.2052 -38.2052 -38.1641 -38.1549 -38.1549 -38.1419
   -38.1368 -38.1368 -38.1366 -38.1292 -38.1292 -38.0483 -38.0447 -38.0447
   -38.0424 -38.0317 -38.0317 -37.9442 -37.9442 -37.9428 -37.8430 -37.8367
   -37.8367 -37.8225 -37.8149 -37.8149  10.9682  11.1086  11.1086  11.1612
    11.1885  11.2050  11.2050  12.0624  12.6448  12.6448  12.6885  12.6885
    12.7049  12.7142  12.7168  12.7168  12.7294  12.7787  12.7787  12.8173
    12.8518  12.8518  12.9004  12.9004  12.9513  12.9513  12.9761  13.0308
    13.0308  13.0844  13.1070  13.1334  13.1334  13.1422  13.1582  13.1807
    13.1807  13.2020  13.2038  13.2038  13.2200  13.2524  13.2524  13.5759
    13.5759  14.1648  14.1860  14.1860  14.7556  14.7556  14.8615  14.8615
    14.8718  14.9343  14.9343  14.9669  14.9669  14.9975  15.0213  15.0845
    15.0845  15.1407  15.1417  15.1417  15.2285  15.3294  15.3294  15.3675
    15.3675  15.3941  15.4471  15.4471  15.5229  15.5876  15.5876  15.7115
    15.7115  15.7514  15.8217  16.0411  16.0411  16.0614  16.1329  22.3778
    22.3778

          k =-0.2500 0.0000 0.2500 (  6500 PWs)   bands (ev):

   -88.0728 -72.3871 -72.2615 -72.2552 -72.2545 -72.2060 -72.1671 -72.1665
   -72.1637 -72.1176 -72.1167 -72.1159 -71.9060 -71.9057 -71.9019 -48.2899
   -48.2865 -48.1761 -38.4877 -38.3948 -38.3945 -38.3554 -38.3441 -38.3433
   -38.3128 -38.3002 -38.2884 -38.2861 -38.2741 -38.2633 -38.2542 -38.2369
   -38.2342 -38.2303 -38.2162 -38.1938 -38.1893 -38.1568 -38.1510 -38.1387
   -38.1259 -38.1118 -38.0965 -38.0928 -38.0792 -38.0729 -38.0694 -38.0660
   -38.0535 -38.0457 -38.0430 -37.9621 -37.9309 -37.9272 -37.8574 -37.8488
   -37.8196 -37.8166 -37.8113 -37.8058   8.6825  10.6169  10.8453  11.4136
    11.6879  11.7006  11.7255  11.7667  11.7840  11.9292  11.9434  11.9969
    12.2285  12.2424  12.4977  12.5633  12.6008  12.7148  12.7709  12.8268
    12.8525  12.8976  12.9711  13.0087  13.0145  13.0335  13.2165  13.3024
    13.4120  13.4350  13.5082  13.5383  13.6318  13.6651  13.7124  13.7718
    13.8049  13.8936  13.9124  14.0287  14.1042  14.1939  14.2676  14.3313
    14.3710  14.3854  14.4152  14.4384  14.4617  14.5206  14.5905  14.6211
    14.6630  14.7737  14.8257  14.8599  14.9085  14.9395  15.0063  15.0447
    15.0714  15.1219  15.1418  15.1635  15.1765  15.2141  15.2514  15.3109
    15.3523  15.4046  15.4395  15.4592  15.5222  15.5400  15.6022  15.6309
    15.6941  15.7756  16.2210  16.5286  16.5661  17.5028  17.6657  17.8447
    18.0748

          k = 0.2500-0.2500 0.2500 (  6493 PWs)   bands (ev):

   -88.0728 -72.3871 -72.2606 -72.2554 -72.2550 -72.2061 -72.1671 -72.1662
   -72.1640 -72.1177 -72.1168 -72.1159 -71.9058 -71.9053 -71.9024 -48.2857
   -48.2853 -48.1772 -38.4863 -38.3903 -38.3887 -38.3563 -38.3415 -38.3396
   -38.3049 -38.3028 -38.2886 -38.2879 -38.2803 -38.2647 -38.2585 -38.2379
   -38.2313 -38.2265 -38.2105 -38.1990 -38.1820 -38.1587 -38.1534 -38.1354
   -38.1296 -38.1220 -38.1181 -38.0918 -38.0895 -38.0695 -38.0648 -38.0554
   -38.0471 -38.0429 -38.0422 -37.9583 -37.9306 -37.9304 -37.8537 -37.8408
   -37.8244 -37.8186 -37.8097 -37.8090   8.9750  10.8224  10.8718  11.1274
    11.5868  11.6096  11.7400  11.8924  11.9332  12.0432  12.1226  12.1286
    12.3842  12.3908  12.5284  12.5576  12.5789  12.7324  12.7374  12.8297
    12.8610  12.9000  12.9321  13.0278  13.0508  13.1105  13.1267  13.3191
    13.3233  13.3485  13.3752  13.4300  13.4576  13.5854  13.6028  13.7113
    13.7294  13.7522  13.7580  13.8893  13.9643  14.0065  14.1302  14.1688
    14.2127  14.2132  14.3733  14.4515  14.4591  14.5443  14.5507  14.6705
    14.7128  14.7430  14.7986  14.8821  14.9033  14.9305  14.9800  14.9909
    15.0397  15.0811  15.1075  15.1199  15.1539  15.1708  15.2068  15.2120
    15.3266  15.3340  15.3866  15.4708  15.5295  15.5762  15.6129  15.6940
    15.7457  15.8627  15.8664  16.5534  16.5547  16.6695  18.4698  18.5302
    18.7720

          k = 0.2500-0.2500-0.5000 (  6456 PWs)   bands (ev):

   -88.0727 -72.3870 -72.2593 -72.2566 -72.2549 -72.2061 -72.1670 -72.1657
   -72.1643 -72.1176 -72.1168 -72.1158 -71.9057 -71.9044 -71.9033 -48.2764
   -48.2758 -48.1695 -38.4840 -38.3855 -38.3816 -38.3573 -38.3389 -38.3359
   -38.3061 -38.2997 -38.2893 -38.2830 -38.2802 -38.2622 -38.2591 -38.2358
   -38.2303 -38.2253 -38.2013 -38.1974 -38.1758 -38.1633 -38.1484 -38.1413
   -38.1341 -38.1236 -38.1164 -38.1021 -38.0920 -38.0697 -38.0614 -38.0513
   -38.0445 -38.0416 -38.0286 -37.9511 -37.9357 -37.9296 -37.8440 -37.8367
   -37.8274 -37.8199 -37.8112 -37.8089   9.6859   9.9163  11.2514  11.3491
    11.3550  11.6155  12.1175  12.1467  12.1727  12.1993  12.2323  12.2483
    12.2931  12.3731  12.3965  12.5164  12.5594  12.6927  12.7349  12.8473
    12.9327  12.9756  13.0071  13.0319  13.0779  13.1135  13.1551  13.2090
    13.2674  13.3282  13.3666  13.4083  13.4417  13.4622  13.5022  13.5173
    13.5396  13.5491  13.5868  13.5915  13.7167  13.7894  13.8093  13.9604
    14.0648  14.2340  14.3337  14.4037  14.5361  14.5740  14.6419  14.6567
    14.7045  14.7432  14.7942  14.8033  14.8136  14.9449  14.9701  15.0221
    15.0356  15.0703  15.1261  15.1442  15.1613  15.1837  15.2044  15.2551
    15.2728  15.3474  15.3861  15.4581  15.4685  15.6300  15.7083  15.8119
    15.8641  15.8685  15.8905  16.0312  16.0521  17.6811  17.8693  19.1696
    19.2448

 ------ SPIN DOWN ----------


          k = 0.0000 0.0000 0.0000 (  6451 PWs)   bands (ev):

   -86.7315 -68.9364 -68.9158 -68.9158 -68.8860 -68.8685 -68.8485 -68.8485
   -68.8430 -68.8430 -68.8405 -68.8368 -68.8368 -68.8231 -68.7959 -46.9250
   -46.9250 -46.8540 -35.2009 -35.1886 -35.1886 -35.1573 -35.1391 -35.1391
   -35.0703 -35.0679 -35.0679 -35.0232 -35.0148 -35.0148 -35.0029 -35.0029
   -35.0005 -34.9969 -34.9969 -34.9785 -34.9707 -34.9707 -34.9611 -34.9601
   -34.9538 -34.9538 -34.9459 -34.9431 -34.9431 -34.9265 -34.9154 -34.9154
   -34.8981 -34.8981 -34.8836 -34.8480 -34.8221 -34.8221 -34.8086 -34.8086
   -34.7845 -34.7779 -34.7779 -34.7717   8.2172  12.1782  12.2452  12.2452
    12.3483  12.3483  12.5168  12.9120  12.9120  13.0128  13.0314  13.0314
    13.5844  13.7561  13.7561  14.3314  14.3314  14.4337  14.7071  14.7071
    14.7447  14.9175  14.9175  14.9848  15.2049  15.2049  15.3639  15.4652
    15.4652  15.6870  15.7347  15.9106  16.0642  16.0642  16.1481  16.1481
    16.3655  16.3655  16.3861  16.4737  16.4737  16.4842  16.5417  16.5417
    16.5809  16.7451  16.7451  16.8968  17.0330  17.0330  17.0549  17.2861
    17.2861  17.3321  17.3321  17.4179  17.5653  17.5653  17.6531  17.8980
    17.9873  17.9873  18.0315  18.1031  18.1031  18.2230  18.2230  18.3549
    18.3549  18.3980  18.4107  18.4138  18.4138  18.4391  18.5776  18.5776
    18.7833  18.7833  18.8177  18.8177  18.8879  18.8879  18.9207  18.9642
    19.0486

          k = 0.0000 0.0000 0.2500 (  6495 PWs)   bands (ev):

   -86.7316 -68.9334 -68.9181 -68.9158 -68.8863 -68.8701 -68.8541 -68.8479
   -68.8437 -68.8428 -68.8417 -68.8369 -68.8286 -68.8208 -68.7988 -46.9378
   -46.9335 -46.8644 -35.1928 -35.1818 -35.1797 -35.1474 -35.1361 -35.1354
   -35.0815 -35.0786 -35.0731 -35.0644 -35.0608 -35.0456 -35.0347 -35.0186
   -35.0142 -35.0044 -34.9817 -34.9764 -34.9734 -34.9659 -34.9595 -34.9498
   -34.9322 -34.9302 -34.9231 -34.9188 -34.9164 -34.9098 -34.9027 -34.8959
   -34.8942 -34.8843 -34.8775 -34.8551 -34.8347 -34.8316 -34.8210 -34.8178
   -34.8055 -34.7974 -34.7947 -34.7885   8.5213  10.7965  12.4054  12.4081
    12.5051  12.5716  12.9256  12.9566  12.9973  13.0015  13.2123  13.3319
    13.6817  13.8748  13.8812  14.2554  14.3431  14.3873  14.5294  14.7965
    14.8044  14.8599  14.9298  15.0173  15.0623  15.0852  15.3715  15.3810
    15.4446  15.4844  15.6271  15.8071  15.8963  15.9103  15.9822  16.0617
    16.0857  16.1183  16.1744  16.2401  16.2708  16.3462  16.3485  16.4874
    16.5093  16.6801  16.7820  16.8483  16.8782  16.8967  17.0880  17.1820
    17.2142  17.3083  17.3962  17.6571  17.7206  17.7367  17.7994  17.8721
    17.9266  17.9689  18.0560  18.0719  18.1559  18.1643  18.2729  18.3230
    18.3504  18.3717  18.4103  18.4845  18.5201  18.6289  18.6520  18.7036
    18.7069  18.7315  18.8334  18.8453  18.8679  18.9152  18.9522  18.9692
    18.9876

          k = 0.0000 0.0000-0.5000 (  6480 PWs)   bands (ev):

   -86.7316 -68.9284 -68.9225 -68.9158 -68.8866 -68.8719 -68.8569 -68.8468
   -68.8448 -68.8422 -68.8422 -68.8369 -68.8264 -68.8135 -68.8042 -46.9378
   -46.9291 -46.8615 -35.1460 -35.1453 -35.1408 -35.1369 -35.1361 -35.1219
   -35.1210 -35.1147 -35.1121 -35.1002 -35.0763 -35.0692 -35.0584 -35.0223
   -35.0172 -35.0027 -34.9920 -34.9874 -34.9802 -34.9690 -34.9625 -34.9444
   -34.9244 -34.9094 -34.9033 -34.8986 -34.8930 -34.8871 -34.8843 -34.8792
   -34.8734 -34.8726 -34.8553 -34.8517 -34.8444 -34.8369 -34.8287 -34.8230
   -34.8212 -34.8145 -34.8140 -34.8042   9.2879   9.5743  12.6243  12.6856
    12.7061  12.7543  12.8771  12.8945  12.9312  13.1454  13.5400  13.6290
    13.7704  13.9517  14.0006  14.0642  14.1160  14.3213  14.4491  14.5505
    14.8554  14.8615  14.9463  15.0815  15.1883  15.2708  15.3543  15.3848
    15.4313  15.4374  15.4466  15.5475  15.5795  15.5891  15.6494  15.8125
    15.8325  15.8538  15.9547  16.0010  16.0825  16.1606  16.1802  16.3307
    16.3509  16.6257  16.7565  17.0304  17.0676  17.2432  17.3261  17.3425
    17.4276  17.4590  17.4995  17.6351  17.6968  17.7513  17.7807  17.8261
    17.8973  17.9265  18.0783  18.2064  18.2465  18.3055  18.3258  18.3386
    18.3634  18.4038  18.4294  18.4565  18.4815  18.5010  18.5194  18.6083
    18.6095  18.7162  18.7780  18.8435  18.8469  18.9551  19.0126  19.0586
    19.0676

          k = 0.0000 0.2500 0.2500 (  6500 PWs)   bands (ev):

   -86.7316 -68.9305 -68.9192 -68.9167 -68.8868 -68.8692 -68.8591 -68.8509
   -68.8441 -68.8430 -68.8413 -68.8319 -68.8230 -68.8219 -68.8014 -46.9384
   -46.9328 -46.8680 -35.1850 -35.1664 -35.1566 -35.1347 -35.1265 -35.1256
   -35.1179 -35.1011 -35.0938 -35.0854 -35.0567 -35.0539 -35.0365 -35.0135
   -35.0048 -35.0022 -34.9939 -34.9772 -34.9763 -34.9720 -34.9674 -34.9584
   -34.9401 -34.9396 -34.9257 -34.9234 -34.9058 -34.8979 -34.8913 -34.8807
   -34.8783 -34.8654 -34.8588 -34.8565 -34.8393 -34.8305 -34.8299 -34.8228
   -34.8187 -34.8057 -34.7914 -34.7878   8.8244  10.9709  11.1017  12.4230
    12.6443  12.6766  13.0591  13.1795  13.2262  13.2578  13.4197  13.5275
    13.7973  13.9213  14.0446  14.2144  14.3278  14.3857  14.5461  14.7094
    14.7960  14.8155  14.8656  14.9477  15.0588  15.0657  15.1530  15.2656
    15.3594  15.4643  15.5382  15.6427  15.6932  15.7519  15.7937  15.8479
    15.9338  15.9553  16.0197  16.1205  16.1464  16.2000  16.2793  16.4241
    16.5012  16.6085  16.6945  16.8549  16.9638  17.0870  17.1370  17.1615
    17.2943  17.3271  17.4050  17.5132  17.5828  17.7373  17.8240  17.9241
    18.0005  18.0415  18.0440  18.0987  18.1303  18.2065  18.2287  18.2750
    18.2795  18.3644  18.3784  18.3891  18.4553  18.4564  18.4757  18.5536
    18.5645  18.6921  18.8417  18.9924  19.0414  19.5093  19.6329  19.7057
    19.7227

          k = 0.0000 0.2500-0.5000 (  6452 PWs)   bands (ev):

   -86.7316 -68.9264 -68.9219 -68.9171 -68.8871 -68.8704 -68.8598 -68.8540
   -68.8436 -68.8430 -68.8406 -68.8309 -68.8238 -68.8142 -68.8061 -46.9288
   -46.9227 -46.8543 -35.1565 -35.1477 -35.1413 -35.1358 -35.1328 -35.1284
   -35.1150 -35.1091 -35.0986 -35.0751 -35.0654 -35.0588 -35.0436 -35.0331
   -35.0158 -34.9950 -34.9930 -34.9830 -34.9765 -34.9756 -34.9695 -34.9484
   -34.9309 -34.9302 -34.9233 -34.9139 -34.9097 -34.8968 -34.8894 -34.8754
   -34.8720 -34.8644 -34.8526 -34.8466 -34.8320 -34.8304 -34.8236 -34.8192
   -34.8116 -34.8057 -34.8028 -34.7919   9.5724   9.8441  11.5499  11.8280
    12.8880  12.9456  13.1062  13.2039  13.5131  13.5787  13.6527  13.6907
    13.8533  13.9533  14.0313  14.0967  14.1894  14.3959  14.4556  14.6234
    14.7380  14.8351  14.9121  15.0046  15.0446  15.0807  15.1663  15.2175
    15.2671  15.3433  15.3861  15.4811  15.5061  15.6135  15.6307  15.6746
    15.7063  15.7764  15.8355  15.9155  15.9998  16.0707  16.1555  16.4232
    16.4907  16.5401  16.8623  16.9196  17.0279  17.1357  17.2052  17.3389
    17.4035  17.4305  17.4904  17.5482  17.5696  17.5986  17.7095  17.8141
    17.8796  17.9624  18.0179  18.0684  18.1225  18.2243  18.2578  18.2776
    18.3198  18.3460  18.3802  18.4034  18.4141  18.4356  18.4747  18.5347
    18.6425  18.7280  18.8554  19.2514  19.3235  19.3533  19.4078  20.1821
    20.4235

          k = 0.0000-0.5000-0.5000 (  6496 PWs)   bands (ev):

   -86.7316 -68.9226 -68.9221 -68.9196 -68.8876 -68.8669 -68.8639 -68.8594
   -68.8434 -68.8429 -68.8386 -68.8292 -68.8189 -68.8148 -68.8092 -46.9401
   -46.9321 -46.8644 -35.1618 -35.1444 -35.1418 -35.1409 -35.1396 -35.1310
   -35.1143 -35.1106 -35.0930 -35.0641 -35.0516 -35.0484 -35.0143 -35.0125
   -35.0092 -35.0010 -34.9974 -34.9953 -34.9892 -34.9860 -34.9756 -34.9625
   -34.9606 -34.9518 -34.9442 -34.9379 -34.9209 -34.9039 -34.8876 -34.8796
   -34.8696 -34.8672 -34.8563 -34.8417 -34.8335 -34.8269 -34.8222 -34.8180
   -34.8084 -34.7968 -34.7946 -34.7854  10.2965  10.4366  10.4417  10.9478
    13.3041  13.3123  13.3437  13.4827  13.5442  13.6277  13.6408  13.7700
    13.9724  13.9907  14.0471  14.0638  14.4004  14.4057  14.5231  14.5371
    14.6778  14.7159  14.7173  14.7839  14.8722  14.9792  15.0404  15.0412
    15.2588  15.2684  15.3432  15.3693  15.4085  15.4546  15.5104  15.5327
    15.6673  15.7032  15.7501  15.9015  16.0179  16.1081  16.1953  16.4361
    16.4684  16.6069  16.6227  16.9248  16.9258  16.9780  17.1413  17.2345
    17.2575  17.3883  17.4932  17.5853  17.6458  17.6896  17.7147  17.7794
    17.8263  17.8724  17.9396  17.9417  18.0585  18.1030  18.1603  18.2317
    18.2535  18.2824  18.2855  18.3152  18.3491  18.4198  18.4552  18.5804
    18.7351  18.8029  18.9904  19.8217  19.8902  20.0056  20.0940  20.1532
    20.2699

          k = 0.2500 0.2500 0.2500 (  6493 PWs)   bands (ev):

   -86.7316 -68.9277 -68.9189 -68.9189 -68.8874 -68.8663 -68.8600 -68.8600
   -68.8424 -68.8424 -68.8410 -68.8247 -68.8229 -68.8229 -68.8036 -46.9355
   -46.9355 -46.8639 -35.1743 -35.1379 -35.1379 -35.1288 -35.1288 -35.1222
   -35.1196 -35.1196 -35.1178 -35.0585 -35.0585 -35.0467 -35.0467 -35.0406
   -35.0275 -35.0086 -34.9930 -34.9930 -34.9775 -34.9736 -34.9736 -34.9374
   -34.9374 -34.9234 -34.9151 -34.9151 -34.9090 -34.9090 -34.9063 -34.8935
   -34.8776 -34.8550 -34.8550 -34.8522 -34.8310 -34.8260 -34.8260 -34.8194
   -34.8194 -34.8021 -34.8021 -34.7910   9.1205  11.2202  11.2202  11.4043
    12.6250  12.6250  12.7934  13.4273  13.4273  13.5897  13.6926  13.6926
    14.0143  14.0688  14.0688  14.1023  14.4038  14.4192  14.4192  14.7648
    14.7677  14.7677  14.8433  14.8433  15.0624  15.0693  15.0693  15.0707
    15.4049  15.4049  15.4295  15.4685  15.4685  15.6613  15.6967  15.6967
    15.7307  15.7610  15.7610  15.9812  15.9812  16.1638  16.1638  16.2916
    16.5113  16.6215  16.6215  17.0069  17.1511  17.1511  17.2440  17.2513
    17.2513  17.3956  17.5146  17.5146  17.5715  17.7458  17.7914  17.7914
    17.9310  18.0287  18.0287  18.1196  18.1921  18.1921  18.2523  18.2523
    18.3176  18.3176  18.3444  18.4002  18.4002  18.4986  18.4986  18.5639
    18.5679  18.5679  18.6557  18.9878  18.9878  19.0128  20.2377  20.2377
    20.3759

          k = 0.2500 0.2500-0.5000 (  6456 PWs)   bands (ev):

   -86.7316 -68.9246 -68.9210 -68.9186 -68.8878 -68.8687 -68.8609 -68.8596
   -68.8430 -68.8419 -68.8407 -68.8275 -68.8228 -68.8146 -68.8073 -46.9301
   -46.9245 -46.8542 -35.1518 -35.1463 -35.1454 -35.1286 -35.1237 -35.1187
   -35.1040 -35.1022 -35.0880 -35.0793 -35.0658 -35.0502 -35.0464 -35.0311
   -35.0262 -35.0168 -35.0058 -35.0000 -34.9833 -34.9804 -34.9794 -34.9415
   -34.9390 -34.9346 -34.9223 -34.9078 -34.9002 -34.8957 -34.8877 -34.8757
   -34.8740 -34.8593 -34.8554 -34.8523 -34.8325 -34.8257 -34.8234 -34.8184
   -34.8072 -34.8067 -34.8011 -34.7949   9.8560  10.1137  11.8001  11.8028
    11.9460  12.2129  13.2011  13.5185  13.6349  13.7093  13.7924  13.8204
    13.9645  14.0779  14.1838  14.2266  14.3129  14.4145  14.5816  14.6189
    14.6614  14.8657  14.8967  14.9282  14.9523  14.9929  15.0838  15.1252
    15.1762  15.2145  15.3451  15.4046  15.4229  15.4793  15.5538  15.5746
    15.6046  15.7014  15.7549  15.8135  15.8472  15.9136  15.9820  16.2714
    16.4283  16.5291  16.7433  16.8572  17.0379  17.1502  17.2987  17.3743
    17.4356  17.5205  17.5554  17.5736  17.7064  17.7151  17.8528  17.8630
    17.9847  17.9978  18.1008  18.1506  18.1808  18.2086  18.2222  18.2601
    18.2756  18.3251  18.3316  18.3522  18.3895  18.4534  18.4761  18.5227
    18.5375  18.5771  18.6165  18.6363  18.7054  19.8277  19.9855  20.7681
    20.8207

          k = 0.2500-0.5000-0.5000 (  6472 PWs)   bands (ev):

   -86.7316 -68.9219 -68.9217 -68.9192 -68.8885 -68.8677 -68.8662 -68.8578
   -68.8448 -68.8409 -68.8390 -68.8297 -68.8170 -68.8151 -68.8096 -46.9305
   -46.9298 -46.8591 -35.1461 -35.1320 -35.1305 -35.1232 -35.1219 -35.1169
   -35.1055 -35.0962 -35.0881 -35.0678 -35.0492 -35.0470 -35.0456 -35.0405
   -35.0368 -35.0305 -35.0286 -35.0213 -35.0072 -34.9887 -34.9842 -34.9398
   -34.9347 -34.9297 -34.9109 -34.9048 -34.9005 -34.8930 -34.8842 -34.8824
   -34.8698 -34.8626 -34.8541 -34.8468 -34.8324 -34.8322 -34.8260 -34.8202
   -34.8127 -34.8079 -34.8043 -34.7966  10.5670  10.7135  10.7149  11.1695
    12.3887  12.5312  12.5416  13.0870  13.8101  13.9370  14.0452  14.0867
    14.1081  14.2123  14.2700  14.3735  14.4868  14.4964  14.5661  14.5910
    14.7082  14.7138  14.8035  14.8367  14.8605  14.9741  14.9945  15.0783
    15.1351  15.2036  15.2431  15.3008  15.3379  15.4036  15.4537  15.4773
    15.5135  15.5996  15.6252  15.7222  15.7249  15.8132  15.9035  15.9453
    16.0621  16.6079  16.6253  16.7722  17.1383  17.1959  17.4026  17.4359
    17.5754  17.6646  17.6877  17.7241  17.7773  17.8697  17.8782  17.8967
    17.9082  17.9869  18.0195  18.0351  18.0814  18.1709  18.1775  18.2153
    18.2201  18.2537  18.2934  18.2969  18.3130  18.3689  18.3827  18.4479
    18.5169  18.5657  18.6647  19.0969  19.1485  19.1708  19.2195  21.6755
    21.8381

          k =-0.5000-0.5000-0.5000 (  6488 PWs)   bands (ev):

   -86.7316 -68.9212 -68.9212 -68.9187 -68.8894 -68.8684 -68.8684 -68.8559
   -68.8469 -68.8392 -68.8392 -68.8299 -68.8153 -68.8153 -68.8100 -46.9322
   -46.9322 -46.8612 -35.1067 -35.1067 -35.1023 -35.1023 -35.1013 -35.0940
   -35.0908 -35.0908 -35.0793 -35.0778 -35.0778 -35.0755 -35.0738 -35.0738
   -35.0648 -35.0557 -35.0404 -35.0404 -35.0211 -34.9874 -34.9874 -34.9316
   -34.9316 -34.9275 -34.8816 -34.8816 -34.8796 -34.8748 -34.8748 -34.8726
   -34.8665 -34.8628 -34.8628 -34.8495 -34.8406 -34.8373 -34.8373 -34.8254
   -34.8254 -34.8198 -34.8198 -34.8085  11.1918  11.4269  11.4269  11.4547
    11.5186  11.5549  11.5549  12.5404  13.9962  13.9962  14.1809  14.1809
    14.2746  14.5864  14.5864  14.6003  14.6326  14.7045  14.7045  14.7186
    14.7186  14.8352  14.8434  14.8434  14.8513  15.0143  15.0568  15.0568
    15.0783  15.0783  15.2578  15.2850  15.2850  15.3230  15.3429  15.3429
    15.3546  15.3730  15.4414  15.4414  15.4428  15.5477  15.5477  15.6308
    15.6308  16.6402  16.6402  16.6598  17.2936  17.2936  17.4964  17.4964
    17.7207  17.9291  17.9371  17.9371  17.9803  17.9803  18.0105  18.0105
    18.0664  18.1281  18.1281  18.1471  18.1471  18.1660  18.1988  18.2115
    18.2616  18.2616  18.2788  18.2788  18.3036  18.3490  18.3490  18.3861
    18.3923  18.3923  18.4133  18.5383  18.5383  18.5546  18.8195  23.4695
    23.4695

          k =-0.2500 0.0000 0.2500 (  6500 PWs)   bands (ev):

   -86.7316 -68.9311 -68.9180 -68.9172 -68.8867 -68.8710 -68.8551 -68.8528
   -68.8435 -68.8431 -68.8418 -68.8307 -68.8283 -68.8184 -68.8014 -46.9395
   -46.9362 -46.8633 -35.1805 -35.1743 -35.1710 -35.1439 -35.1236 -35.1225
   -35.1056 -35.1026 -35.0831 -35.0647 -35.0558 -35.0528 -35.0355 -35.0171
   -35.0072 -35.0033 -34.9881 -34.9843 -34.9770 -34.9713 -34.9680 -34.9611
   -34.9590 -34.9326 -34.9221 -34.9195 -34.9127 -34.9033 -34.8919 -34.8900
   -34.8809 -34.8658 -34.8592 -34.8520 -34.8430 -34.8322 -34.8269 -34.8194
   -34.8055 -34.8011 -34.7992 -34.7860   8.8260  10.8931  11.1864  12.4127
    12.6422  12.6669  13.0899  13.1876  13.2204  13.3273  13.3842  13.4813
    13.7919  13.9407  13.9824  14.1850  14.3146  14.4572  14.5162  14.7484
    14.7722  14.8238  14.8833  14.9032  15.0228  15.1364  15.1754  15.3504
    15.3984  15.4609  15.5223  15.5988  15.6755  15.7507  15.7859  15.8437
    15.9156  15.9835  16.0337  16.0489  16.0893  16.2108  16.3601  16.4493
    16.5209  16.5650  16.7041  16.8588  16.8862  17.0099  17.1309  17.2042
    17.2627  17.3047  17.4006  17.6230  17.7009  17.7221  17.8527  17.8886
    17.9581  17.9735  18.0609  18.1020  18.1538  18.2310  18.2397  18.2771
    18.2836  18.3190  18.3499  18.3842  18.4528  18.4717  18.5065  18.5230
    18.5568  18.5828  18.9878  19.0088  19.0607  19.4138  19.5189  19.7103
    19.8546

          k = 0.2500-0.2500 0.2500 (  6493 PWs)   bands (ev):

   -86.7316 -68.9289 -68.9189 -68.9174 -68.8872 -68.8707 -68.8601 -68.8523
   -68.8450 -68.8423 -68.8402 -68.8317 -68.8229 -68.8178 -68.8036 -46.9354
   -46.9350 -46.8644 -35.1665 -35.1600 -35.1580 -35.1318 -35.1245 -35.1216
   -35.1156 -35.1039 -35.0763 -35.0626 -35.0583 -35.0520 -35.0433 -35.0387
   -35.0234 -35.0194 -35.0097 -34.9940 -34.9877 -34.9780 -34.9750 -34.9343
   -34.9327 -34.9216 -34.9201 -34.9183 -34.9063 -34.9021 -34.8950 -34.8879
   -34.8802 -34.8647 -34.8567 -34.8556 -34.8381 -34.8239 -34.8229 -34.8184
   -34.8122 -34.8011 -34.7997 -34.7949   9.1238  11.1170  11.2211  11.5200
    12.5747  12.6101  12.8468  13.4811  13.5425  13.5876  13.6395  13.6596
    13.9153  13.9822  14.0879  14.1678  14.2822  14.3734  14.4962  14.6563
    14.7956  14.8291  14.8806  14.9184  14.9772  15.0650  15.1667  15.2838
    15.3084  15.3844  15.4014  15.4779  15.5432  15.6360  15.6570  15.6801
    15.7613  15.7751  15.8313  15.8711  15.9919  16.0540  16.1808  16.2972
    16.5284  16.5701  16.7212  16.8760  16.9137  17.1030  17.1331  17.3645
    17.3812  17.4447  17.4584  17.6244  17.6855  17.7626  17.8519  17.9246
    17.9299  17.9655  18.0285  18.1022  18.1246  18.2242  18.2604  18.2696
    18.2886  18.3320  18.3373  18.3689  18.4466  18.4782  18.4987  18.5245
    18.5375  18.5959  18.6289  18.9658  18.9682  19.0285  20.2033  20.2572
    20.4267

          k = 0.2500-0.2500-0.5000 (  6456 PWs)   bands (ev):

   -86.7316 -68.9251 -68.9216 -68.9173 -68.8878 -68.8704 -68.8635 -68.8526
   -68.8461 -68.8416 -68.8392 -68.8322 -68.8196 -68.8145 -68.8076 -46.9263
   -46.9258 -46.8568 -35.1493 -35.1431 -35.1403 -35.1356 -35.1246 -35.1176
   -35.1043 -35.0907 -35.0855 -35.0783 -35.0709 -35.0579 -35.0546 -35.0426
   -35.0262 -35.0136 -35.0078 -34.9963 -34.9909 -34.9854 -34.9795 -34.9422
   -34.9343 -34.9244 -34.9168 -34.8997 -34.8987 -34.8893 -34.8850 -34.8786
   -34.8722 -34.8630 -34.8558 -34.8483 -34.8414 -34.8296 -34.8231 -34.8158
   -34.8122 -34.8086 -34.7990 -34.7957   9.8566  10.1162  11.7160  11.8749
    11.9087  12.2681  13.1905  13.5031  13.6637  13.7998  13.8396  13.8708
    13.9205  13.9760  14.1511  14.1900  14.2910  14.3929  14.5200  14.5841
    14.7404  14.8501  14.9040  14.9478  14.9741  15.0252  15.1124  15.1404
    15.1846  15.2410  15.3583  15.4015  15.4509  15.4773  15.5539  15.5821
    15.6000  15.6868  15.7190  15.7508  15.8045  15.8901  15.9716  16.3594
    16.4461  16.5988  16.6732  16.8506  16.9905  17.0332  17.3200  17.3467
    17.4197  17.5228  17.5831  17.6617  17.7338  17.7903  17.8322  17.8787
    17.9553  18.0055  18.0650  18.1068  18.1717  18.1927  18.2573  18.2829
    18.3257  18.3421  18.3570  18.3806  18.3993  18.4478  18.4725  18.5267
    18.5416  18.5773  18.6120  18.6271  18.6583  19.7973  19.9656  20.7453
    20.8441

     the Fermi energy is    16.2441 ev

!    total energy              =   -3807.99358111 Ry
     estimated scf accuracy    <          5.0E-09 Ry
     smearing contrib. (-TS)   =       0.01593461 Ry
     internal energy E=F+TS    =   -3808.00951573 Ry

     The total energy is F=E-TS. E is the sum of the following terms:
     one-electron contribution =   -1953.84756699 Ry
     hartree contribution      =    1103.08162815 Ry
     xc contribution           =    -422.84204441 Ry
     ewald contribution        =   -2534.40153248 Ry

     total magnetization       =    36.63 Bohr mag/cell
     absolute magnetization    =    39.11 Bohr mag/cell

     convergence has been achieved in  22 iterations

     negative rho (up, down):  0.000E+00 2.778E-03

     Forces acting on atoms (cartesian axes, Ry/au):

     atom    1 type  2   force =    -0.00068360   -0.00068360   -0.00068360
     atom    2 type  1   force =    -0.00115109   -0.00016204   -0.00016204
     atom    3 type  1   force =    -0.00016204   -0.00115109   -0.00016204
     atom    4 type  1   force =     0.00032749    0.00032749   -0.00097351
     atom    5 type  1   force =    -0.00016204   -0.00016204   -0.00115109
     atom    6 type  1   force =     0.00032749   -0.00097351    0.00032749
     atom    7 type  1   force =    -0.00097351    0.00032749    0.00032749
     atom    8 type  1   force =    -0.00074368   -0.00074368   -0.00074368
     atom    9 type  1   force =     0.00035688    0.00069152    0.00069152
     atom   10 type  1   force =     0.00069152    0.00035688    0.00069152
     atom   11 type  1   force =     0.00057667    0.00057667   -0.00037808
     atom   12 type  1   force =     0.00069152    0.00069152    0.00035688
     atom   13 type  1   force =     0.00057667   -0.00037808    0.00057667
     atom   14 type  1   force =    -0.00037808    0.00057667    0.00057667
     atom   15 type  1   force =     0.00070580    0.00070580    0.00070580

     Total force =     0.004225     Total SCF correction =     0.000254
     Energy error            =      7.3E-05 Ry
     Gradient error          =      1.2E-03 Ry/Bohr

     number of scf cycles    =  12
     number of bfgs steps    =  11

     energy             old  =   -3807.9935081317 Ry
     energy             new  =   -3807.9935811121 Ry

     CASE: energy            _new < energy            _old

     new trust radius        =       0.0158666340 bohr
     new conv_thr            =       0.0000000100 Ry


ATOMIC_POSITIONS (crystal)
Ni               0.0009418807        0.0009418807        0.0009418807
Fe               0.4890842363        0.0114090711        0.0114090711
Fe               0.0114090711        0.4890842363        0.0114090711
Fe               0.4963901411        0.4963901411        0.0064239477
Fe               0.0114090711        0.0114090711        0.4890842363
Fe               0.4963901411        0.0064239477        0.4963901411
Fe               0.0064239477        0.4963901411        0.4963901411
Fe               0.4876556489        0.4876556489        0.4876556489
Fe               0.7538851594        0.2482673303        0.2482673303
Fe               0.2482673303        0.7538851594        0.2482673303
Fe               0.7480945238        0.7480945238        0.2519029283
Fe               0.2482673303        0.2482673303        0.7538851594
Fe               0.7480945238        0.2519029283        0.7480945238
Fe               0.2519029283        0.7480945238        0.7480945238
Fe               0.7517840662        0.7517840662        0.7517840662



     Writing config-only to output data dir ./outdir/fe15_ni1_end.save/ :
     XML data file
     NEW-OLD atomic charge density approx. for the potential

     Check: negative core charge=   -0.000004

     negative rho (up, down):  0.000E+00 3.017E-03
     Generating pointlists ...

     total cpu time spent up to now is     6804.0 secs

     per-process dynamical memory:   178.6 Mb

     Self-consistent Calculation

     iteration #  1     ecut=    45.00 Ry     beta= 0.10
     Davidson diagonalization with overlap
     ethr =  1.00E-06,  avg # of iterations =  8.2

     negative rho (up, down):  0.000E+00 3.015E-03

     total cpu time spent up to now is     6857.6 secs

     total energy              =   -3807.99462206 Ry
     estimated scf accuracy    <       0.01194840 Ry

     total magnetization       =    36.63 Bohr mag/cell
     absolute magnetization    =    39.12 Bohr mag/cell

     iteration #  2     ecut=    45.00 Ry     beta= 0.10
     Davidson diagonalization with overlap
     ethr =  4.94E-06,  avg # of iterations =  2.0

     negative rho (up, down):  0.000E+00 3.018E-03

     total cpu time spent up to now is     6881.0 secs

     total energy              =   -3807.98914593 Ry
     estimated scf accuracy    <       0.20395379 Ry

     total magnetization       =    36.62 Bohr mag/cell
     absolute magnetization    =    39.38 Bohr mag/cell

     iteration #  3     ecut=    45.00 Ry     beta= 0.10
     Davidson diagonalization with overlap
     ethr =  4.94E-06,  avg # of iterations =  2.0

     negative rho (up, down):  0.000E+00 3.013E-03

     total cpu time spent up to now is     6905.0 secs

     total energy              =   -3807.99215572 Ry
     estimated scf accuracy    <       0.00127131 Ry

     total magnetization       =    36.63 Bohr mag/cell
     absolute magnetization    =    39.11 Bohr mag/cell

     iteration #  4     ecut=    45.00 Ry     beta= 0.10
     Davidson diagonalization with overlap
     ethr =  5.25E-07,  avg # of iterations =  1.8

     negative rho (up, down):  0.000E+00 2.998E-03

     total cpu time spent up to now is     6926.5 secs

     total energy              =   -3807.99247912 Ry
     estimated scf accuracy    <       0.00012063 Ry

     total magnetization       =    36.63 Bohr mag/cell
     absolute magnetization    =    39.11 Bohr mag/cell

     iteration #  5     ecut=    45.00 Ry     beta= 0.10
     Davidson diagonalization with overlap
     ethr =  4.98E-08,  avg # of iterations =  2.3

     negative rho (up, down):  0.000E+00 2.985E-03

     total cpu time spent up to now is     6949.1 secs

     total energy              =   -3807.99264632 Ry
     estimated scf accuracy    <       0.00011341 Ry

     total magnetization       =    36.63 Bohr mag/cell
     absolute magnetization    =    39.11 Bohr mag/cell

     iteration #  6     ecut=    45.00 Ry     beta= 0.10
     Davidson diagonalization with overlap
     ethr =  4.69E-08,  avg # of iterations =  2.0

     negative rho (up, down):  0.000E+00 2.963E-03

     total cpu time spent up to now is     6971.7 secs

     total energy              =   -3807.99284984 Ry
     estimated scf accuracy    <       0.00008162 Ry

     total magnetization       =    36.63 Bohr mag/cell
     absolute magnetization    =    39.11 Bohr mag/cell

     iteration #  7     ecut=    45.00 Ry     beta= 0.10
     Davidson diagonalization with overlap
     ethr =  3.37E-08,  avg # of iterations =  2.0

     negative rho (up, down):  0.000E+00 2.964E-03

     total cpu time spent up to now is     6993.8 secs

     total energy              =   -3807.99298627 Ry
     estimated scf accuracy    <       0.00000639 Ry

     total magnetization       =    36.63 Bohr mag/cell
     absolute magnetization    =    39.11 Bohr mag/cell

     iteration #  8     ecut=    45.00 Ry     beta= 0.10
     Davidson diagonalization with overlap
     ethr =  2.64E-09,  avg # of iterations =  2.6

     negative rho (up, down):  0.000E+00 2.969E-03

     total cpu time spent up to now is     7016.9 secs

     total energy              =   -3807.99311277 Ry
     estimated scf accuracy    <       0.00000305 Ry

     total magnetization       =    36.63 Bohr mag/cell
     absolute magnetization    =    39.11 Bohr mag/cell

     iteration #  9     ecut=    45.00 Ry     beta= 0.10
     Davidson diagonalization with overlap
     ethr =  1.26E-09,  avg # of iterations =  2.1

     negative rho (up, down):  0.000E+00 2.972E-03

     total cpu time spent up to now is     7039.1 secs

     total energy              =   -3807.99321606 Ry
     estimated scf accuracy    <       0.00000502 Ry

     total magnetization       =    36.63 Bohr mag/cell
     absolute magnetization    =    39.11 Bohr mag/cell

     iteration # 10     ecut=    45.00 Ry     beta= 0.10
     Davidson diagonalization with overlap
     ethr =  1.26E-09,  avg # of iterations =  1.5

     negative rho (up, down):  0.000E+00 2.974E-03

     total cpu time spent up to now is     7060.6 secs

     total energy              =   -3807.99329335 Ry
     estimated scf accuracy    <       0.00000059 Ry

     total magnetization       =    36.63 Bohr mag/cell
     absolute magnetization    =    39.11 Bohr mag/cell

     iteration # 11     ecut=    45.00 Ry     beta= 0.10
     Davidson diagonalization with overlap
     ethr =  2.46E-10,  avg # of iterations =  2.4

     negative rho (up, down):  0.000E+00 2.975E-03

     total cpu time spent up to now is     7084.9 secs

     total energy              =   -3807.99335198 Ry
     estimated scf accuracy    <       0.00000059 Ry

     total magnetization       =    36.63 Bohr mag/cell
     absolute magnetization    =    39.11 Bohr mag/cell

     iteration # 12     ecut=    45.00 Ry     beta= 0.10
     Davidson diagonalization with overlap
     ethr =  2.43E-10,  avg # of iterations =  2.0

     negative rho (up, down):  0.000E+00 2.979E-03

     total cpu time spent up to now is     7107.9 secs

     total energy              =   -3807.99340535 Ry
     estimated scf accuracy    <       0.00000074 Ry

     total magnetization       =    36.63 Bohr mag/cell
     absolute magnetization    =    39.11 Bohr mag/cell

     iteration # 13     ecut=    45.00 Ry     beta= 0.10
     Davidson diagonalization with overlap
     ethr =  2.43E-10,  avg # of iterations =  2.7

     negative rho (up, down):  0.000E+00 2.981E-03

     total cpu time spent up to now is     7134.2 secs

     total energy              =   -3807.99343641 Ry
     estimated scf accuracy    <       0.00001510 Ry

     total magnetization       =    36.63 Bohr mag/cell
     absolute magnetization    =    39.11 Bohr mag/cell

     iteration # 14     ecut=    45.00 Ry     beta= 0.10
     Davidson diagonalization with overlap
     ethr =  2.43E-10,  avg # of iterations =  2.3

     negative rho (up, down):  0.000E+00 2.983E-03

     total cpu time spent up to now is     7158.4 secs

     total energy              =   -3807.99346606 Ry
     estimated scf accuracy    <       0.00000082 Ry

     total magnetization       =    36.63 Bohr mag/cell
     absolute magnetization    =    39.11 Bohr mag/cell

     iteration # 15     ecut=    45.00 Ry     beta= 0.10
     Davidson diagonalization with overlap
     ethr =  2.43E-10,  avg # of iterations =  3.1

     negative rho (up, down):  0.000E+00 2.985E-03

     total cpu time spent up to now is     7184.1 secs

     total energy              =   -3807.99350108 Ry
     estimated scf accuracy    <       0.00001972 Ry

     total magnetization       =    36.63 Bohr mag/cell
     absolute magnetization    =    39.11 Bohr mag/cell

     iteration # 16     ecut=    45.00 Ry     beta= 0.10
     Davidson diagonalization with overlap
     ethr =  2.43E-10,  avg # of iterations =  2.1

     negative rho (up, down):  0.000E+00 2.987E-03

     total cpu time spent up to now is     7208.3 secs

     total energy              =   -3807.99352450 Ry
     estimated scf accuracy    <       0.00000241 Ry

     total magnetization       =    36.63 Bohr mag/cell
     absolute magnetization    =    39.11 Bohr mag/cell

     iteration # 17     ecut=    45.00 Ry     beta= 0.10
     Davidson diagonalization with overlap
     ethr =  2.43E-10,  avg # of iterations =  2.0

     negative rho (up, down):  0.000E+00 2.989E-03

     total cpu time spent up to now is     7231.5 secs

     total energy              =   -3807.99354135 Ry
     estimated scf accuracy    <       0.00000002 Ry

     total magnetization       =    36.63 Bohr mag/cell
     absolute magnetization    =    39.11 Bohr mag/cell

     iteration # 18     ecut=    45.00 Ry     beta= 0.10
     Davidson diagonalization with overlap
     ethr =  8.39E-12,  avg # of iterations =  4.8

     negative rho (up, down):  0.000E+00 2.989E-03

     total cpu time spent up to now is     7264.6 secs

     total energy              =   -3807.99355125 Ry
     estimated scf accuracy    <       0.00000602 Ry

     total magnetization       =    36.63 Bohr mag/cell
     absolute magnetization    =    39.11 Bohr mag/cell

     iteration # 19     ecut=    45.00 Ry     beta= 0.10
     Davidson diagonalization with overlap
     ethr =  8.39E-12,  avg # of iterations =  4.5

     negative rho (up, down):  0.000E+00 2.989E-03

     total cpu time spent up to now is     7296.0 secs

     total energy              =   -3807.99356332 Ry
     estimated scf accuracy    <       0.00000042 Ry

     total magnetization       =    36.63 Bohr mag/cell
     absolute magnetization    =    39.11 Bohr mag/cell

     iteration # 20     ecut=    45.00 Ry     beta= 0.10
     Davidson diagonalization with overlap
     ethr =  8.39E-12,  avg # of iterations =  2.0

     negative rho (up, down):  0.000E+00 2.989E-03

     total cpu time spent up to now is     7318.5 secs

     total energy              =   -3807.99357305 Ry
     estimated scf accuracy    <       0.00000045 Ry

     total magnetization       =    36.63 Bohr mag/cell
     absolute magnetization    =    39.11 Bohr mag/cell

     iteration # 21     ecut=    45.00 Ry     beta= 0.10
     Davidson diagonalization with overlap
     ethr =  8.39E-12,  avg # of iterations =  2.7

     negative rho (up, down):  0.000E+00 2.990E-03

     total cpu time spent up to now is     7343.9 secs

     total energy              =   -3807.99358007 Ry
     estimated scf accuracy    <       0.00000002 Ry

     total magnetization       =    36.63 Bohr mag/cell
     absolute magnetization    =    39.11 Bohr mag/cell

     iteration # 22     ecut=    45.00 Ry     beta= 0.10
     Davidson diagonalization with overlap
     ethr =  7.08E-12,  avg # of iterations =  2.4

     negative rho (up, down):  0.000E+00 2.990E-03

     total cpu time spent up to now is     7367.8 secs

     total energy              =   -3807.99358617 Ry
     estimated scf accuracy    <       0.00000014 Ry

     total magnetization       =    36.63 Bohr mag/cell
     absolute magnetization    =    39.11 Bohr mag/cell

     iteration # 23     ecut=    45.00 Ry     beta= 0.10
     Davidson diagonalization with overlap
     ethr =  7.08E-12,  avg # of iterations =  1.4

     negative rho (up, down):  0.000E+00 2.990E-03

     total cpu time spent up to now is     7388.0 secs

     total energy              =   -3807.99359104 Ry
     estimated scf accuracy    <       0.00000012 Ry

     total magnetization       =    36.63 Bohr mag/cell
     absolute magnetization    =    39.11 Bohr mag/cell

     iteration # 24     ecut=    45.00 Ry     beta= 0.10
     Davidson diagonalization with overlap
     ethr =  7.08E-12,  avg # of iterations =  1.7

     negative rho (up, down):  0.000E+00 2.990E-03

     total cpu time spent up to now is     7409.0 secs

     total energy              =   -3807.99359502 Ry
     estimated scf accuracy    <       0.00000022 Ry

     total magnetization       =    36.63 Bohr mag/cell
     absolute magnetization    =    39.11 Bohr mag/cell

     iteration # 25     ecut=    45.00 Ry     beta= 0.10
     Davidson diagonalization with overlap
     ethr =  7.08E-12,  avg # of iterations =  2.0

     negative rho (up, down):  0.000E+00 2.990E-03

     total cpu time spent up to now is     7431.5 secs

     total energy              =   -3807.99359829 Ry
     estimated scf accuracy    <       0.00000050 Ry

     total magnetization       =    36.63 Bohr mag/cell
     absolute magnetization    =    39.11 Bohr mag/cell

     iteration # 26     ecut=    45.00 Ry     beta= 0.10
     Davidson diagonalization with overlap
     ethr =  7.08E-12,  avg # of iterations =  2.3

     negative rho (up, down):  0.000E+00 2.990E-03

     total cpu time spent up to now is     7455.5 secs

     total energy              =   -3807.99360118 Ry
     estimated scf accuracy    <       0.00000148 Ry

     total magnetization       =    36.63 Bohr mag/cell
     absolute magnetization    =    39.11 Bohr mag/cell

     iteration # 27     ecut=    45.00 Ry     beta= 0.10
     Davidson diagonalization with overlap
     ethr =  7.08E-12,  avg # of iterations =  2.0

     negative rho (up, down):  0.000E+00 2.990E-03

     total cpu time spent up to now is     7478.7 secs

     total energy              =   -3807.99360336 Ry
     estimated scf accuracy    <       0.00000084 Ry

     total magnetization       =    36.63 Bohr mag/cell
     absolute magnetization    =    39.11 Bohr mag/cell

     iteration # 28     ecut=    45.00 Ry     beta= 0.10
     Davidson diagonalization with overlap
     ethr =  7.08E-12,  avg # of iterations =  2.8

     negative rho (up, down):  0.000E+00 2.990E-03

     total cpu time spent up to now is     7503.8 secs

     total energy              =   -3807.99360482 Ry
     estimated scf accuracy    <       0.00000003 Ry

     total magnetization       =    36.63 Bohr mag/cell
     absolute magnetization    =    39.11 Bohr mag/cell

     iteration # 29     ecut=    45.00 Ry     beta= 0.10
     Davidson diagonalization with overlap
     ethr =  7.08E-12,  avg # of iterations =  2.0

     negative rho (up, down):  0.000E+00 2.991E-03

     Magnetic moment per site  (integrated on atomic sphere of radius R)
     atom   1 (R=0.176)  charge= 16.5654  magn=  0.9604
     atom   2 (R=0.176)  charge= 14.2921  magn=  2.6202
     atom   3 (R=0.176)  charge= 14.2921  magn=  2.6202
     atom   4 (R=0.176)  charge= 14.2959  magn=  2.6425
     atom   5 (R=0.176)  charge= 14.2921  magn=  2.6202
     atom   6 (R=0.176)  charge= 14.2959  magn=  2.6425
     atom   7 (R=0.176)  charge= 14.2959  magn=  2.6425
     atom   8 (R=0.176)  charge= 14.2808  magn=  2.6995
     atom   9 (R=0.176)  charge= 14.3640  magn=  2.4399
     atom  10 (R=0.176)  charge= 14.3640  magn=  2.4399
     atom  11 (R=0.176)  charge= 14.2955  magn=  2.6632
     atom  12 (R=0.176)  charge= 14.3640  magn=  2.4399
     atom  13 (R=0.176)  charge= 14.2955  magn=  2.6632
     atom  14 (R=0.176)  charge= 14.2955  magn=  2.6632
     atom  15 (R=0.176)  charge= 14.2483  magn=  2.7933

     total cpu time spent up to now is     7525.7 secs

     End of self-consistent calculation

 ------ SPIN UP ------------


          k = 0.0000 0.0000 0.0000 (  6451 PWs)   bands (ev):

   -88.0745 -72.3883 -72.2649 -72.2556 -72.2556 -72.2081 -72.1596 -72.1596
   -72.1567 -72.1224 -72.1219 -72.1219 -71.9049 -71.9049 -71.8992 -48.2761
   -48.2761 -48.1694 -38.4902 -38.3996 -38.3996 -38.3500 -38.3454 -38.3454
   -38.3217 -38.2896 -38.2893 -38.2893 -38.2652 -38.2541 -38.2470 -38.2470
   -38.2310 -38.2310 -38.2082 -38.1792 -38.1792 -38.1519 -38.1519 -38.1181
   -38.1181 -38.0938 -38.0936 -38.0838 -38.0838 -38.0777 -38.0726 -38.0726
   -38.0604 -38.0604 -38.0566 -37.9696 -37.9175 -37.9175 -37.8616 -37.8616
   -37.8032 -37.8024 -37.8010 -37.8010   8.0828  11.4031  11.4226  11.4226
    11.4648  11.5105  11.5105  11.5495  11.5495  11.6706  11.7498  11.7498
    12.0842  12.0842  12.4158  12.7168  12.7248  12.7248  12.8148  12.8148
    12.8370  12.9580  12.9580  12.9889  13.1676  13.1676  13.2189  13.2410
    13.4350  13.4350  13.4690  13.5998  13.5998  13.7900  13.8027  13.8027
    14.0491  14.0491  14.0683  14.1149  14.1234  14.1234  14.1934  14.1934
    14.2739  14.5417  14.5713  14.5713  14.7311  14.8253  14.8253  14.8540
    14.8540  14.9504  14.9992  15.0049  15.0049  15.0744  15.0744  15.1315
    15.1315  15.1997  15.1997  15.2116  15.2116  15.2257  15.2439  15.4530
    15.5791  15.5791  15.9898  15.9898  16.0415  16.0415  16.1370  16.1370
    16.1436  16.1823  16.2859  16.2859  16.3539  16.5638  16.6309  16.6309
    16.6689

          k = 0.0000 0.0000 0.2500 (  6495 PWs)   bands (ev):

   -88.0746 -72.3883 -72.2639 -72.2567 -72.2557 -72.2082 -72.1596 -72.1596
   -72.1567 -72.1227 -72.1221 -72.1217 -71.9050 -71.9042 -71.8998 -48.2891
   -48.2848 -48.1801 -38.4914 -38.4002 -38.3981 -38.3550 -38.3467 -38.3464
   -38.3206 -38.2972 -38.2875 -38.2833 -38.2707 -38.2576 -38.2522 -38.2404
   -38.2310 -38.2309 -38.2118 -38.1916 -38.1893 -38.1640 -38.1483 -38.1405
   -38.1222 -38.1095 -38.0928 -38.0877 -38.0798 -38.0701 -38.0649 -38.0648
   -38.0569 -38.0480 -38.0443 -37.9662 -37.9275 -37.9232 -37.8589 -37.8564
   -37.8136 -37.8135 -37.8089 -37.8079   8.3828  10.5371  11.5070  11.5080
    11.5413  11.5827  11.5996  11.6301  11.6968  11.7772  11.8270  11.8681
    12.1376  12.1777  12.4391  12.6357  12.6724  12.6817  12.7444  12.7712
    12.8668  12.8837  12.9328  13.1011  13.1059  13.1562  13.2105  13.2463
    13.3306  13.5712  13.5732  13.5997  13.7250  13.7379  13.7644  13.7872
    13.8193  13.8541  13.9044  14.0824  14.0865  14.2784  14.3115  14.3581
    14.3725  14.4674  14.5360  14.5833  14.6071  14.6077  14.6353  14.7123
    14.7825  14.8627  14.9325  14.9573  15.0105  15.0178  15.0770  15.1019
    15.1075  15.1349  15.1577  15.1598  15.1818  15.1910  15.2345  15.3024
    15.3202  15.4638  15.5252  15.5305  15.5997  15.9000  16.0510  16.0770
    16.1064  16.1614  16.2777  16.2850  16.4388  16.6468  16.7912  16.8641
    17.0156

          k = 0.0000 0.0000-0.5000 (  6480 PWs)   bands (ev):

   -88.0746 -72.3883 -72.2623 -72.2583 -72.2557 -72.2082 -72.1595 -72.1595
   -72.1568 -72.1229 -72.1221 -72.1215 -71.9050 -71.9030 -71.9010 -48.2891
   -48.2801 -48.1773 -38.4894 -38.3954 -38.3889 -38.3575 -38.3439 -38.3403
   -38.3001 -38.2970 -38.2957 -38.2909 -38.2766 -38.2501 -38.2494 -38.2447
   -38.2355 -38.2249 -38.2197 -38.1981 -38.1954 -38.1817 -38.1506 -38.1469
   -38.1361 -38.1079 -38.0900 -38.0888 -38.0769 -38.0697 -38.0619 -38.0590
   -38.0542 -38.0356 -38.0287 -37.9594 -37.9342 -37.9232 -37.8526 -37.8438
   -37.8251 -37.8208 -37.8102 -37.8081   9.1390   9.4049  11.6244  11.6434
    11.6504  11.7093  11.7693  11.7930  11.8425  11.8795  11.9441  12.0643
    12.0710  12.2033  12.3260  12.3562  12.3952  12.6176  12.6310  12.6396
    12.9685  12.9767  13.2132  13.2303  13.2839  13.2866  13.2893  13.4171
    13.4472  13.4920  13.5638  13.5911  13.6110  13.6397  13.6533  13.6882
    13.7558  13.7809  13.8304  13.9401  13.9586  14.1267  14.1814  14.2020
    14.2513  14.3034  14.3829  14.4673  14.5059  14.5343  14.6181  14.6431
    14.6908  14.7572  14.7795  14.9063  15.0177  15.0545  15.0728  15.0797
    15.0953  15.1042  15.1560  15.1710  15.1753  15.2025  15.2198  15.2514
    15.4009  15.5194  15.6494  15.6616  15.6806  15.7342  15.7643  15.8230
    15.9159  16.2461  16.4302  16.4672  16.5450  16.6046  16.6685  16.7204
    16.7388

          k = 0.0000 0.2500 0.2500 (  6500 PWs)   bands (ev):

   -88.0746 -72.3883 -72.2628 -72.2573 -72.2562 -72.2083 -72.1597 -72.1590
   -72.1571 -72.1228 -72.1222 -72.1216 -71.9046 -71.9039 -71.9006 -48.2898
   -48.2840 -48.1837 -38.4908 -38.3964 -38.3933 -38.3573 -38.3439 -38.3422
   -38.3154 -38.3005 -38.2876 -38.2862 -38.2794 -38.2581 -38.2564 -38.2338
   -38.2326 -38.2309 -38.2059 -38.2051 -38.1873 -38.1625 -38.1507 -38.1394
   -38.1248 -38.1215 -38.1031 -38.0943 -38.0786 -38.0676 -38.0669 -38.0549
   -38.0507 -38.0485 -38.0452 -37.9594 -37.9285 -37.9255 -37.8521 -37.8470
   -37.8224 -37.8140 -37.8121 -37.8079   8.6823  10.6530  10.8035  11.4229
    11.6848  11.6921  11.7186  11.7404  11.8180  11.9189  11.9561  12.0038
    12.2446  12.2489  12.4925  12.5521  12.6049  12.7004  12.7829  12.8146
    12.8667  12.9174  12.9641  12.9657  13.0265  13.0399  13.2190  13.2729
    13.3961  13.4153  13.5120  13.5772  13.5924  13.6863  13.7090  13.7971
    13.8047  13.9094  13.9269  14.0453  14.1108  14.2130  14.2487  14.2925
    14.3250  14.3306  14.4034  14.4339  14.5278  14.5648  14.6315  14.6390
    14.6923  14.7403  14.7887  14.8192  14.8916  14.9545  15.0136  15.0305
    15.0670  15.0848  15.1108  15.1669  15.1966  15.2173  15.2670  15.3486
    15.3551  15.3967  15.4055  15.4802  15.5204  15.5230  15.5733  15.7265
    15.8038  15.8154  16.0774  16.5286  16.5514  17.6012  17.6497  17.8436
    17.9960

          k = 0.0000 0.2500-0.5000 (  6452 PWs)   bands (ev):

   -88.0746 -72.3882 -72.2615 -72.2583 -72.2563 -72.2082 -72.1598 -72.1588
   -72.1571 -72.1229 -72.1222 -72.1213 -71.9044 -71.9029 -71.9015 -48.2799
   -48.2737 -48.1698 -38.4868 -38.3900 -38.3852 -38.3581 -38.3413 -38.3397
   -38.3052 -38.2985 -38.2940 -38.2861 -38.2807 -38.2623 -38.2508 -38.2402
   -38.2291 -38.2229 -38.2119 -38.1940 -38.1884 -38.1637 -38.1485 -38.1447
   -38.1247 -38.1107 -38.0937 -38.0881 -38.0769 -38.0738 -38.0658 -38.0622
   -38.0550 -38.0441 -38.0374 -37.9502 -37.9322 -37.9243 -37.8446 -37.8360
   -37.8235 -37.8199 -37.8100 -37.8057   9.4117   9.6579  11.0634  11.2438
    11.8400  11.8757  11.9675  11.9984  12.0238  12.0319  12.0703  12.1595
    12.1839  12.2889  12.3500  12.4246  12.4653  12.6470  12.7353  12.7472
    12.9657  12.9926  13.0635  13.0948  13.1256  13.1373  13.1972  13.2898
    13.3543  13.4074  13.5291  13.5458  13.5660  13.5989  13.6457  13.6657
    13.6851  13.7719  13.7921  13.8408  13.9238  13.9590  14.0132  14.0961
    14.1654  14.3274  14.4372  14.4561  14.4660  14.5172  14.6366  14.6567
    14.6825  14.7197  14.7579  14.7637  14.8130  14.8723  14.9163  14.9928
    15.0438  15.0478  15.1115  15.1513  15.1724  15.2013  15.2261  15.2339
    15.2993  15.3585  15.3781  15.4021  15.4729  15.4750  15.5287  15.6452
    15.7662  15.9562  16.0962  17.0258  17.0654  17.1494  17.2252  18.7267
    18.8120

          k = 0.0000-0.5000-0.5000 (  6496 PWs)   bands (ev):

   -88.0746 -72.3882 -72.2602 -72.2588 -72.2572 -72.2083 -72.1599 -72.1584
   -72.1576 -72.1231 -72.1224 -72.1213 -71.9034 -71.9030 -71.9026 -48.2913
   -48.2834 -48.1802 -38.4865 -38.3882 -38.3800 -38.3628 -38.3408 -38.3394
   -38.3152 -38.2980 -38.2960 -38.2887 -38.2886 -38.2712 -38.2547 -38.2376
   -38.2307 -38.2272 -38.2043 -38.1936 -38.1866 -38.1555 -38.1503 -38.1270
   -38.1198 -38.1007 -38.1001 -38.0955 -38.0908 -38.0883 -38.0810 -38.0751
   -38.0630 -38.0479 -38.0468 -37.9430 -37.9352 -37.9287 -37.8387 -37.8294
   -37.8286 -37.8190 -37.8166 -37.8052  10.0927  10.1600  10.2064  10.6507
    12.0561  12.0782  12.1053  12.1509  12.2187  12.2364  12.2481  12.2989
    12.3535  12.3823  12.5362  12.5816  12.6310  12.6342  12.6709  12.6764
    12.8274  12.8680  12.8692  12.8992  12.9511  12.9980  13.0127  13.2492
    13.3370  13.3753  13.4339  13.4349  13.5086  13.5328  13.5434  13.5566
    13.5999  13.6800  13.7141  13.7454  13.7762  13.7774  13.8677  14.0544
    14.1210  14.3075  14.3159  14.4273  14.4891  14.5668  14.6056  14.6437
    14.6849  14.6881  14.7269  14.7416  14.7863  14.8000  14.8349  14.9095
    14.9279  14.9583  15.0066  15.0317  15.0537  15.0973  15.1370  15.1870
    15.2012  15.2068  15.2268  15.3078  15.3847  15.4304  15.4480  15.6625
    15.7795  16.0469  16.2027  17.8320  17.8816  17.9665  18.0548  18.1366
    18.2926

          k = 0.2500 0.2500 0.2500 (  6493 PWs)   bands (ev):

   -88.0746 -72.3882 -72.2618 -72.2572 -72.2572 -72.2083 -72.1590 -72.1590
   -72.1579 -72.1222 -72.1222 -72.1222 -71.9038 -71.9038 -71.9014 -48.2868
   -48.2868 -48.1796 -38.4888 -38.3900 -38.3900 -38.3591 -38.3394 -38.3394
   -38.3078 -38.2994 -38.2896 -38.2879 -38.2879 -38.2554 -38.2554 -38.2374
   -38.2349 -38.2349 -38.2017 -38.2017 -38.1923 -38.1558 -38.1558 -38.1358
   -38.1358 -38.1175 -38.1092 -38.0815 -38.0815 -38.0710 -38.0710 -38.0672
   -38.0461 -38.0461 -38.0445 -37.9537 -37.9290 -37.9290 -37.8425 -37.8425
   -37.8283 -37.8132 -37.8107 -37.8107   8.9744  10.8722  10.8722  11.0684
    11.6213  11.6213  11.6921  11.9045  11.9045  12.0212  12.1421  12.1421
    12.4019  12.4019  12.5252  12.5552  12.6070  12.7155  12.7155  12.8313
    12.8313  12.9189  12.9638  13.0133  13.0133  13.1224  13.1224  13.2843
    13.3573  13.3573  13.3604  13.4287  13.4287  13.5994  13.5994  13.7214
    13.7214  13.7396  13.8057  13.9003  13.9003  13.9708  14.1621  14.1621
    14.2435  14.2435  14.3479  14.5434  14.5435  14.5435  14.5826  14.6869
    14.6869  14.7854  14.8194  14.8386  14.8386  14.9214  14.9763  14.9763
    15.0475  15.0559  15.0559  15.1717  15.1717  15.2007  15.2007  15.2068
    15.2293  15.3215  15.3215  15.5286  15.5286  15.6124  15.6902  15.6902
    15.7396  15.7396  15.8638  16.5743  16.5743  16.6460  18.5269  18.5269
    18.7151

          k = 0.2500 0.2500-0.5000 (  6456 PWs)   bands (ev):

   -88.0746 -72.3881 -72.2608 -72.2582 -72.2571 -72.2083 -72.1593 -72.1590
   -72.1575 -72.1228 -72.1222 -72.1216 -71.9038 -71.9031 -71.9020 -48.2813
   -48.2756 -48.1697 -38.4854 -38.3860 -38.3820 -38.3591 -38.3388 -38.3380
   -38.2987 -38.2972 -38.2937 -38.2933 -38.2835 -38.2596 -38.2591 -38.2348
   -38.2302 -38.2256 -38.2071 -38.1974 -38.1823 -38.1533 -38.1528 -38.1484
   -38.1221 -38.1155 -38.0999 -38.0978 -38.0931 -38.0787 -38.0650 -38.0561
   -38.0457 -38.0451 -38.0360 -37.9475 -37.9336 -37.9280 -37.8431 -37.8343
   -37.8272 -37.8188 -37.8093 -37.8066   9.6864   9.9156  11.2949  11.3091
    11.3771  11.5783  12.1359  12.1558  12.1897  12.1987  12.2005  12.2191
    12.3020  12.3616  12.4089  12.5227  12.5585  12.6761  12.7485  12.8502
    12.9552  12.9933  13.0009  13.0410  13.0473  13.1135  13.1549  13.1873
    13.2323  13.2757  13.3714  13.4362  13.4484  13.4708  13.5119  13.5319
    13.5591  13.5740  13.5853  13.6209  13.6969  13.7782  13.8165  13.9458
    14.0749  14.2142  14.3455  14.4040  14.5588  14.6085  14.6246  14.6991
    14.7255  14.7295  14.7618  14.8196  14.8474  14.9164  14.9635  15.0323
    15.0444  15.0775  15.1201  15.1304  15.1685  15.1941  15.1960  15.2485
    15.2546  15.3326  15.3750  15.4239  15.4637  15.7057  15.7093  15.7753
    15.8187  15.8454  15.9077  15.9963  16.0499  17.7065  17.8972  19.2283
    19.2462

          k = 0.2500-0.5000-0.5000 (  6472 PWs)   bands (ev):

   -88.0746 -72.3881 -72.2597 -72.2587 -72.2576 -72.2083 -72.1596 -72.1585
   -72.1579 -72.1228 -72.1223 -72.1215 -71.9035 -71.9027 -71.9026 -48.2817
   -48.2810 -48.1747 -38.4842 -38.3808 -38.3763 -38.3608 -38.3383 -38.3374
   -38.3057 -38.2938 -38.2910 -38.2868 -38.2860 -38.2655 -38.2577 -38.2412
   -38.2276 -38.2239 -38.2020 -38.1984 -38.1759 -38.1543 -38.1533 -38.1340
   -38.1291 -38.1243 -38.1220 -38.1132 -38.1091 -38.0655 -38.0596 -38.0549
   -38.0477 -38.0386 -38.0353 -37.9444 -37.9380 -37.9326 -37.8406 -37.8335
   -37.8330 -37.8188 -37.8115 -37.8085  10.3569  10.4327  10.4703  10.8646
    11.8011  11.9192  11.9279  12.1647  12.2471  12.2731  12.3371  12.5482
    12.5572  12.5984  12.6281  12.6729  12.6809  12.7074  12.7074  12.7745
    12.8060  12.8621  12.8702  12.9063  12.9489  12.9664  13.0062  13.1061
    13.1427  13.1918  13.2015  13.2920  13.3089  13.3229  13.3568  13.3718
    13.4147  13.4392  13.4511  13.5478  13.5685  13.5758  13.6437  13.6695
    13.7715  14.2216  14.2228  14.2874  14.6914  14.6968  14.7212  14.8022
    14.8158  14.8409  14.8655  14.8776  14.9372  14.9444  15.0034  15.0278
    15.0594  15.1103  15.1275  15.1355  15.1776  15.2070  15.2083  15.2183
    15.2519  15.2573  15.2969  15.3619  15.3883  15.4215  15.4947  15.6092
    15.6573  15.8192  15.9416  16.6915  16.7425  16.7523  16.8746  20.1736
    20.3083

          k =-0.5000-0.5000-0.5000 (  6488 PWs)   bands (ev):

   -88.0746 -72.3881 -72.2588 -72.2586 -72.2586 -72.2083 -72.1587 -72.1586
   -72.1586 -72.1222 -72.1222 -72.1220 -71.9036 -71.9025 -71.9025 -48.2834
   -48.2834 -48.1768 -38.4823 -38.3719 -38.3719 -38.3615 -38.3351 -38.3351
   -38.3052 -38.2877 -38.2877 -38.2845 -38.2806 -38.2575 -38.2575 -38.2510
   -38.2249 -38.2249 -38.2060 -38.2060 -38.1641 -38.1551 -38.1551 -38.1388
   -38.1365 -38.1365 -38.1354 -38.1274 -38.1274 -38.0490 -38.0457 -38.0457
   -38.0434 -38.0324 -38.0324 -37.9424 -37.9424 -37.9412 -37.8417 -37.8358
   -37.8358 -37.8217 -37.8134 -37.8134  10.9681  11.1091  11.1091  11.1596
    11.1897  11.2048  11.2048  12.0620  12.6425  12.6425  12.6891  12.6891
    12.7006  12.7145  12.7145  12.7151  12.7298  12.7773  12.7773  12.8193
    12.8531  12.8531  12.9001  12.9001  12.9535  12.9535  12.9747  13.0289
    13.0289  13.0845  13.1031  13.1325  13.1325  13.1447  13.1576  13.1814
    13.1814  13.2006  13.2048  13.2048  13.2212  13.2506  13.2506  13.5793
    13.5793  14.1673  14.1893  14.1893  14.7565  14.7565  14.8602  14.8602
    14.8702  14.9346  14.9346  14.9631  14.9631  14.9916  15.0247  15.0857
    15.0857  15.1416  15.1416  15.1431  15.2286  15.3296  15.3296  15.3681
    15.3681  15.3964  15.4465  15.4465  15.5239  15.5875  15.5875  15.7129
    15.7129  15.7523  15.8203  16.0421  16.0421  16.0636  16.1327  22.3785
    22.3785

          k =-0.2500 0.0000 0.2500 (  6500 PWs)   bands (ev):

   -88.0746 -72.3883 -72.2630 -72.2570 -72.2563 -72.2082 -72.1599 -72.1593
   -72.1567 -72.1230 -72.1222 -72.1214 -71.9045 -71.9042 -71.9003 -48.2910
   -48.2876 -48.1789 -38.4894 -38.3949 -38.3946 -38.3575 -38.3461 -38.3452
   -38.3125 -38.3014 -38.2887 -38.2864 -38.2749 -38.2638 -38.2542 -38.2376
   -38.2346 -38.2285 -38.2185 -38.1936 -38.1883 -38.1572 -38.1519 -38.1368
   -38.1242 -38.1105 -38.0936 -38.0889 -38.0764 -38.0760 -38.0712 -38.0675
   -38.0548 -38.0487 -38.0438 -37.9605 -37.9293 -37.9256 -37.8564 -37.8477
   -37.8187 -37.8157 -37.8101 -37.8045   8.6826  10.6172  10.8453  11.4138
    11.6878  11.7006  11.7255  11.7674  11.7847  11.9291  11.9433  11.9965
    12.2284  12.2421  12.4979  12.5631  12.6007  12.7148  12.7696  12.8273
    12.8524  12.8974  12.9694  13.0102  13.0128  13.0360  13.2169  13.3013
    13.4119  13.4358  13.5071  13.5371  13.6314  13.6651  13.7131  13.7696
    13.8043  13.8946  13.9115  14.0261  14.1029  14.1928  14.2666  14.3276
    14.3730  14.3913  14.4098  14.4383  14.4634  14.5202  14.5927  14.6218
    14.6648  14.7728  14.8252  14.8622  14.9084  14.9381  15.0046  15.0436
    15.0702  15.1210  15.1411  15.1632  15.1784  15.2151  15.2489  15.3118
    15.3560  15.4049  15.4400  15.4597  15.5224  15.5418  15.6023  15.6323
    15.6929  15.7775  16.2205  16.5282  16.5670  17.5024  17.6654  17.8456
    18.0754

          k = 0.2500-0.2500 0.2500 (  6493 PWs)   bands (ev):

   -88.0746 -72.3882 -72.2622 -72.2572 -72.2568 -72.2083 -72.1599 -72.1590
   -72.1570 -72.1230 -72.1222 -72.1214 -71.9043 -71.9038 -71.9009 -48.2867
   -48.2864 -48.1800 -38.4880 -38.3904 -38.3889 -38.3586 -38.3437 -38.3415
   -38.3047 -38.3037 -38.2890 -38.2880 -38.2809 -38.2653 -38.2587 -38.2379
   -38.2326 -38.2238 -38.2134 -38.1990 -38.1813 -38.1592 -38.1533 -38.1336
   -38.1280 -38.1206 -38.1165 -38.0892 -38.0869 -38.0714 -38.0653 -38.0572
   -38.0496 -38.0437 -38.0432 -37.9567 -37.9290 -37.9288 -37.8526 -37.8398
   -37.8233 -37.8179 -37.8085 -37.8077   8.9751  10.8225  10.8721  11.1272
    11.5872  11.6098  11.7391  11.8926  11.9341  12.0439  12.1228  12.1276
    12.3837  12.3903  12.5269  12.5585  12.5790  12.7321  12.7364  12.8290
    12.8618  12.9000  12.9322  13.0283  13.0508  13.1108  13.1270  13.3193
    13.3223  13.3464  13.3736  13.4304  13.4600  13.5858  13.6034  13.7086
    13.7282  13.7521  13.7574  13.8840  13.9632  14.0054  14.1330  14.1723
    14.2145  14.2158  14.3730  14.4504  14.4583  14.5449  14.5497  14.6704
    14.7125  14.7450  14.7973  14.8825  14.9039  14.9289  14.9776  14.9890
    15.0385  15.0808  15.1078  15.1202  15.1553  15.1718  15.2071  15.2135
    15.3277  15.3341  15.3871  15.4716  15.5303  15.5773  15.6136  15.6948
    15.7460  15.8624  15.8663  16.5538  16.5551  16.6695  18.4700  18.5309
    18.7707

          k = 0.2500-0.2500-0.5000 (  6456 PWs)   bands (ev):

   -88.0746 -72.3881 -72.2609 -72.2583 -72.2568 -72.2083 -72.1599 -72.1587
   -72.1573 -72.1230 -72.1223 -72.1213 -71.9042 -71.9028 -71.9018 -48.2775
   -48.2769 -48.1723 -38.4857 -38.3857 -38.3817 -38.3598 -38.3411 -38.3379
   -38.3062 -38.2998 -38.2900 -38.2828 -38.2812 -38.2620 -38.2599 -38.2374
   -38.2299 -38.2238 -38.2030 -38.1981 -38.1753 -38.1633 -38.1487 -38.1406
   -38.1323 -38.1200 -38.1151 -38.1003 -38.0905 -38.0708 -38.0623 -38.0533
   -38.0453 -38.0437 -38.0292 -37.9496 -37.9340 -37.9279 -37.8429 -37.8357
   -37.8263 -37.8192 -37.8098 -37.8076   9.6860   9.9164  11.2514  11.3479
    11.3569  11.6150  12.1157  12.1470  12.1715  12.2000  12.2338  12.2486
    12.2927  12.3728  12.3950  12.5165  12.5603  12.6930  12.7330  12.8465
    12.9324  12.9732  13.0093  13.0302  13.0787  13.1138  13.1548  13.2108
    13.2668  13.3271  13.3662  13.4036  13.4424  13.4645  13.4997  13.5171
    13.5398  13.5507  13.5867  13.5902  13.7180  13.7920  13.8095  13.9590
    14.0635  14.2359  14.3339  14.4076  14.5370  14.5750  14.6417  14.6545
    14.7056  14.7416  14.7956  14.8030  14.8130  14.9425  14.9690  15.0190
    15.0326  15.0712  15.1266  15.1451  15.1613  15.1852  15.2042  15.2556
    15.2745  15.3478  15.3866  15.4590  15.4686  15.6314  15.7080  15.8119
    15.8643  15.8680  15.8917  16.0328  16.0535  17.6804  17.8692  19.1701
    19.2447

 ------ SPIN DOWN ----------


          k = 0.0000 0.0000 0.0000 (  6451 PWs)   bands (ev):

   -86.7326 -68.9367 -68.9163 -68.9163 -68.8869 -68.8691 -68.8490 -68.8490
   -68.8417 -68.8417 -68.8399 -68.8366 -68.8366 -68.8233 -68.7959 -46.9255
   -46.9255 -46.8560 -35.2008 -35.1886 -35.1886 -35.1575 -35.1393 -35.1393
   -35.0711 -35.0681 -35.0681 -35.0248 -35.0152 -35.0152 -35.0036 -35.0036
   -35.0017 -34.9967 -34.9967 -34.9769 -34.9716 -34.9716 -34.9612 -34.9607
   -34.9537 -34.9537 -34.9460 -34.9431 -34.9431 -34.9249 -34.9148 -34.9148
   -34.8972 -34.8972 -34.8834 -34.8485 -34.8220 -34.8220 -34.8083 -34.8083
   -34.7843 -34.7777 -34.7777 -34.7716   8.2173  12.1788  12.2454  12.2454
    12.3484  12.3484  12.5166  12.9129  12.9129  13.0126  13.0319  13.0319
    13.5842  13.7560  13.7560  14.3317  14.3317  14.4341  14.7061  14.7061
    14.7441  14.9181  14.9181  14.9842  15.2051  15.2051  15.3581  15.4645
    15.4645  15.6865  15.7351  15.9124  16.0645  16.0645  16.1450  16.1450
    16.3664  16.3664  16.3794  16.4707  16.4707  16.4869  16.5425  16.5425
    16.5870  16.7411  16.7411  16.9002  17.0400  17.0400  17.0441  17.2827
    17.2827  17.3316  17.3316  17.4187  17.5706  17.5706  17.6566  17.9006
    17.9861  17.9861  18.0279  18.1029  18.1029  18.2234  18.2234  18.3543
    18.3543  18.3977  18.4116  18.4136  18.4136  18.4408  18.5780  18.5780
    18.7853  18.7853  18.8163  18.8163  18.8899  18.8899  18.9215  18.9633
    19.0480

          k = 0.0000 0.0000 0.2500 (  6495 PWs)   bands (ev):

   -86.7327 -68.9338 -68.9186 -68.9163 -68.8872 -68.8705 -68.8545 -68.8485
   -68.8423 -68.8422 -68.8407 -68.8367 -68.8281 -68.8212 -68.7988 -46.9383
   -46.9341 -46.8664 -35.1927 -35.1819 -35.1797 -35.1477 -35.1363 -35.1355
   -35.0819 -35.0791 -35.0740 -35.0643 -35.0609 -35.0459 -35.0347 -35.0191
   -35.0148 -35.0049 -34.9820 -34.9767 -34.9738 -34.9665 -34.9604 -34.9493
   -34.9319 -34.9308 -34.9226 -34.9185 -34.9167 -34.9099 -34.9022 -34.8950
   -34.8935 -34.8834 -34.8769 -34.8555 -34.8344 -34.8314 -34.8208 -34.8174
   -34.8052 -34.7972 -34.7945 -34.7884   8.5214  10.7967  12.4056  12.4088
    12.5051  12.5715  12.9263  12.9569  12.9974  13.0020  13.2119  13.3333
    13.6813  13.8738  13.8807  14.2557  14.3438  14.3884  14.5275  14.7951
    14.8059  14.8598  14.9290  15.0172  15.0618  15.0850  15.3692  15.3828
    15.4417  15.4832  15.6251  15.8078  15.8972  15.9088  15.9807  16.0606
    16.0861  16.1152  16.1734  16.2410  16.2705  16.3490  16.3493  16.4860
    16.5079  16.6840  16.7817  16.8496  16.8796  16.8937  17.0884  17.1845
    17.2093  17.3115  17.3997  17.6565  17.7209  17.7371  17.7983  17.8723
    17.9255  17.9680  18.0558  18.0703  18.1569  18.1632  18.2730  18.3227
    18.3506  18.3712  18.4098  18.4829  18.5214  18.6295  18.6513  18.7030
    18.7078  18.7325  18.8332  18.8457  18.8695  18.9163  18.9525  18.9706
    18.9884

          k = 0.0000 0.0000-0.5000 (  6480 PWs)   bands (ev):

   -86.7327 -68.9288 -68.9229 -68.9163 -68.8875 -68.8721 -68.8574 -68.8479
   -68.8428 -68.8423 -68.8406 -68.8368 -68.8262 -68.8137 -68.8041 -46.9383
   -46.9297 -46.8635 -35.1459 -35.1453 -35.1408 -35.1367 -35.1362 -35.1221
   -35.1214 -35.1154 -35.1123 -35.1007 -35.0764 -35.0697 -35.0581 -35.0227
   -35.0179 -35.0025 -34.9929 -34.9876 -34.9806 -34.9696 -34.9631 -34.9438
   -34.9237 -34.9096 -34.9041 -34.8997 -34.8930 -34.8862 -34.8839 -34.8793
   -34.8732 -34.8716 -34.8545 -34.8520 -34.8443 -34.8363 -34.8286 -34.8228
   -34.8208 -34.8141 -34.8138 -34.8040   9.2880   9.5745  12.6244  12.6874
    12.7062  12.7539  12.8756  12.8954  12.9315  13.1456  13.5403  13.6268
    13.7720  13.9522  14.0024  14.0632  14.1147  14.3240  14.4474  14.5493
    14.8536  14.8630  14.9450  15.0829  15.1884  15.2678  15.3512  15.3831
    15.4323  15.4349  15.4477  15.5475  15.5790  15.5907  15.6513  15.8080
    15.8330  15.8507  15.9545  15.9991  16.0826  16.1685  16.1810  16.3314
    16.3527  16.6291  16.7566  17.0364  17.0638  17.2407  17.3234  17.3425
    17.4217  17.4575  17.4972  17.6385  17.6974  17.7444  17.7819  17.8294
    17.8971  17.9264  18.0781  18.2037  18.2465  18.3049  18.3244  18.3389
    18.3632  18.4054  18.4309  18.4582  18.4820  18.5013  18.5187  18.6086
    18.6114  18.7164  18.7774  18.8458  18.8480  18.9560  19.0129  19.0589
    19.0689

          k = 0.0000 0.2500 0.2500 (  6500 PWs)   bands (ev):

   -86.7327 -68.9309 -68.9197 -68.9172 -68.8877 -68.8696 -68.8593 -68.8512
   -68.8439 -68.8421 -68.8401 -68.8315 -68.8227 -68.8223 -68.8014 -46.9389
   -46.9333 -46.8700 -35.1849 -35.1664 -35.1567 -35.1349 -35.1267 -35.1257
   -35.1181 -35.1015 -35.0944 -35.0852 -35.0570 -35.0547 -35.0367 -35.0142
   -35.0058 -35.0025 -34.9939 -34.9776 -34.9765 -34.9724 -34.9674 -34.9584
   -34.9400 -34.9393 -34.9249 -34.9234 -34.9057 -34.8978 -34.8915 -34.8808
   -34.8779 -34.8645 -34.8590 -34.8562 -34.8389 -34.8304 -34.8297 -34.8225
   -34.8183 -34.8054 -34.7912 -34.7876   8.8245  10.9713  11.1015  12.4239
    12.6441  12.6766  13.0589  13.1792  13.2269  13.2587  13.4200  13.5283
    13.7962  13.9201  14.0430  14.2157  14.3287  14.3856  14.5447  14.7094
    14.7954  14.8165  14.8641  14.9475  15.0595  15.0668  15.1528  15.2609
    15.3570  15.4645  15.5383  15.6404  15.6935  15.7491  15.7947  15.8487
    15.9354  15.9553  16.0209  16.1226  16.1468  16.1986  16.2793  16.4265
    16.5031  16.6059  16.6921  16.8562  16.9630  17.0844  17.1394  17.1620
    17.2953  17.3295  17.4069  17.5091  17.5821  17.7355  17.8227  17.9219
    18.0030  18.0421  18.0426  18.0969  18.1301  18.2061  18.2290  18.2767
    18.2773  18.3653  18.3778  18.3882  18.4573  18.4575  18.4772  18.5524
    18.5678  18.6924  18.8417  18.9926  19.0413  19.5091  19.6320  19.7052
    19.7244

          k = 0.0000 0.2500-0.5000 (  6452 PWs)   bands (ev):

   -86.7326 -68.9268 -68.9223 -68.9176 -68.8880 -68.8706 -68.8602 -68.8541
   -68.8436 -68.8421 -68.8393 -68.8304 -68.8238 -68.8142 -68.8061 -46.9293
   -46.9233 -46.8563 -35.1566 -35.1476 -35.1413 -35.1358 -35.1327 -35.1283
   -35.1152 -35.1100 -35.0989 -35.0758 -35.0656 -35.0589 -35.0436 -35.0336
   -35.0162 -34.9954 -34.9932 -34.9838 -34.9773 -34.9761 -34.9698 -34.9473
   -34.9302 -34.9300 -34.9230 -34.9144 -34.9100 -34.8965 -34.8891 -34.8765
   -34.8718 -34.8631 -34.8526 -34.8460 -34.8318 -34.8303 -34.8234 -34.8189
   -34.8114 -34.8055 -34.8025 -34.7917   9.5725   9.8443  11.5499  11.8284
    12.8878  12.9459  13.1057  13.2042  13.5141  13.5780  13.6505  13.6917
    13.8541  13.9549  14.0315  14.0954  14.1880  14.3983  14.4552  14.6216
    14.7361  14.8357  14.9121  15.0034  15.0432  15.0810  15.1650  15.2161
    15.2668  15.3426  15.3858  15.4789  15.5054  15.6148  15.6310  15.6748
    15.7068  15.7792  15.8369  15.9145  15.9976  16.0698  16.1550  16.4254
    16.4967  16.5418  16.8623  16.9168  17.0285  17.1347  17.2021  17.3366
    17.4042  17.4312  17.4867  17.5538  17.5703  17.6000  17.7112  17.8130
    17.8782  17.9609  18.0164  18.0673  18.1217  18.2244  18.2574  18.2786
    18.3191  18.3456  18.3801  18.4040  18.4150  18.4354  18.4765  18.5352
    18.6435  18.7284  18.8552  19.2516  19.3233  19.3542  19.4085  20.1824
    20.4235

          k = 0.0000-0.5000-0.5000 (  6496 PWs)   bands (ev):

   -86.7327 -68.9230 -68.9226 -68.9201 -68.8885 -68.8670 -68.8642 -68.8595
   -68.8433 -68.8420 -68.8374 -68.8289 -68.8190 -68.8146 -68.8094 -46.9406
   -46.9326 -46.8664 -35.1620 -35.1444 -35.1418 -35.1405 -35.1395 -35.1309
   -35.1144 -35.1117 -35.0935 -35.0646 -35.0519 -35.0491 -35.0149 -35.0129
   -35.0099 -35.0013 -34.9979 -34.9970 -34.9902 -34.9855 -34.9748 -34.9612
   -34.9610 -34.9506 -34.9441 -34.9374 -34.9210 -34.9033 -34.8882 -34.8808
   -34.8695 -34.8657 -34.8564 -34.8408 -34.8334 -34.8268 -34.8218 -34.8180
   -34.8082 -34.7967 -34.7942 -34.7852  10.2971  10.4370  10.4409  10.9481
    13.3027  13.3118  13.3445  13.4815  13.5450  13.6278  13.6418  13.7714
    13.9702  13.9883  14.0488  14.0627  14.4008  14.4062  14.5222  14.5407
    14.6731  14.7154  14.7155  14.7842  14.8736  14.9786  15.0387  15.0397
    15.2592  15.2658  15.3407  15.3709  15.4101  15.4555  15.5106  15.5324
    15.6705  15.7042  15.7503  15.8988  16.0183  16.1111  16.1934  16.4320
    16.4698  16.6081  16.6186  16.9277  16.9314  16.9814  17.1437  17.2321
    17.2544  17.3904  17.4936  17.5874  17.6467  17.6874  17.7162  17.7789
    17.8242  17.8700  17.9378  17.9399  18.0596  18.1024  18.1618  18.2329
    18.2543  18.2820  18.2841  18.3153  18.3496  18.4199  18.4572  18.5806
    18.7362  18.8023  18.9898  19.8210  19.8898  20.0049  20.0923  20.1532
    20.2725

          k = 0.2500 0.2500 0.2500 (  6493 PWs)   bands (ev):

   -86.7327 -68.9281 -68.9194 -68.9194 -68.8882 -68.8667 -68.8602 -68.8602
   -68.8416 -68.8416 -68.8404 -68.8249 -68.8226 -68.8226 -68.8036 -46.9360
   -46.9360 -46.8659 -35.1742 -35.1378 -35.1378 -35.1292 -35.1292 -35.1224
   -35.1198 -35.1198 -35.1181 -35.0587 -35.0587 -35.0469 -35.0469 -35.0414
   -35.0278 -35.0086 -34.9934 -34.9934 -34.9781 -34.9743 -34.9743 -34.9374
   -34.9374 -34.9233 -34.9141 -34.9141 -34.9092 -34.9092 -34.9061 -34.8930
   -34.8775 -34.8546 -34.8546 -34.8522 -34.8309 -34.8260 -34.8260 -34.8190
   -34.8190 -34.8018 -34.8018 -34.7908   9.1206  11.2206  11.2206  11.4035
    12.6250  12.6250  12.7942  13.4280  13.4280  13.5905  13.6927  13.6927
    14.0095  14.0670  14.0670  14.1053  14.4029  14.4203  14.4203  14.7655
    14.7675  14.7675  14.8412  14.8412  15.0607  15.0683  15.0706  15.0706
    15.4031  15.4031  15.4314  15.4682  15.4682  15.6583  15.6988  15.6988
    15.7321  15.7617  15.7617  15.9827  15.9827  16.1629  16.1629  16.2879
    16.5179  16.6216  16.6216  16.9990  17.1487  17.1487  17.2344  17.2575
    17.2575  17.4048  17.5109  17.5109  17.5820  17.7407  17.7897  17.7897
    17.9308  18.0280  18.0280  18.1202  18.1914  18.1914  18.2518  18.2518
    18.3173  18.3173  18.3440  18.4010  18.4010  18.5003  18.5003  18.5640
    18.5695  18.5695  18.6557  18.9881  18.9881  19.0135  20.2373  20.2373
    20.3740

          k = 0.2500 0.2500-0.5000 (  6456 PWs)   bands (ev):

   -86.7326 -68.9250 -68.9215 -68.9191 -68.8887 -68.8689 -68.8610 -68.8599
   -68.8427 -68.8411 -68.8397 -68.8273 -68.8225 -68.8146 -68.8074 -46.9306
   -46.9250 -46.8562 -35.1519 -35.1464 -35.1452 -35.1287 -35.1238 -35.1188
   -35.1042 -35.1025 -35.0886 -35.0794 -35.0660 -35.0503 -35.0469 -35.0315
   -35.0269 -35.0172 -35.0057 -35.0008 -34.9835 -34.9807 -34.9798 -34.9415
   -34.9388 -34.9343 -34.9218 -34.9080 -34.9004 -34.8962 -34.8874 -34.8754
   -34.8734 -34.8584 -34.8550 -34.8523 -34.8325 -34.8255 -34.8233 -34.8181
   -34.8069 -34.8064 -34.8008 -34.7947   9.8560  10.1140  11.7994  11.8034
    11.9459  12.2133  13.2010  13.5189  13.6353  13.7087  13.7922  13.8196
    13.9662  14.0786  14.1829  14.2256  14.3088  14.4160  14.5807  14.6184
    14.6629  14.8660  14.8943  14.9305  14.9500  14.9905  15.0815  15.1248
    15.1755  15.2158  15.3465  15.4042  15.4234  15.4787  15.5526  15.5769
    15.6055  15.7034  15.7553  15.8144  15.8443  15.9131  15.9827  16.2693
    16.4279  16.5295  16.7442  16.8621  17.0384  17.1548  17.2961  17.3769
    17.4378  17.5171  17.5545  17.5709  17.7040  17.7150  17.8560  17.8616
    17.9845  17.9955  18.0989  18.1497  18.1806  18.2105  18.2210  18.2607
    18.2759  18.3242  18.3301  18.3538  18.3902  18.4538  18.4765  18.5260
    18.5378  18.5763  18.6179  18.6370  18.7055  19.8274  19.9847  20.7688
    20.8198

          k = 0.2500-0.5000-0.5000 (  6472 PWs)   bands (ev):

   -86.7327 -68.9224 -68.9221 -68.9197 -68.8894 -68.8678 -68.8664 -68.8580
   -68.8446 -68.8401 -68.8381 -68.8294 -68.8170 -68.8148 -68.8098 -46.9310
   -46.9303 -46.8611 -35.1464 -35.1319 -35.1305 -35.1231 -35.1220 -35.1169
   -35.1061 -35.0967 -35.0885 -35.0682 -35.0500 -35.0474 -35.0460 -35.0407
   -35.0370 -35.0305 -35.0291 -35.0215 -35.0073 -34.9888 -34.9844 -34.9399
   -34.9351 -34.9297 -34.9107 -34.9046 -34.9008 -34.8922 -34.8842 -34.8826
   -34.8697 -34.8618 -34.8539 -34.8461 -34.8323 -34.8322 -34.8258 -34.8199
   -34.8124 -34.8077 -34.8039 -34.7964  10.5674  10.7127  10.7153  11.1700
    12.3889  12.5308  12.5417  13.0872  13.8093  13.9363  14.0450  14.0849
    14.1066  14.2141  14.2696  14.3727  14.4863  14.4960  14.5666  14.5926
    14.7086  14.7125  14.8037  14.8337  14.8622  14.9723  14.9937  15.0774
    15.1328  15.2010  15.2430  15.3023  15.3389  15.4044  15.4527  15.4770
    15.5154  15.5974  15.6300  15.7215  15.7281  15.8135  15.9021  15.9438
    16.0608  16.6070  16.6263  16.7806  17.1405  17.1999  17.4018  17.4353
    17.5717  17.6640  17.6864  17.7255  17.7748  17.8695  17.8780  17.8975
    17.9064  17.9866  18.0184  18.0320  18.0810  18.1726  18.1771  18.2167
    18.2202  18.2541  18.2941  18.2956  18.3144  18.3685  18.3851  18.4490
    18.5176  18.5667  18.6640  19.0957  19.1489  19.1717  19.2200  21.6749
    21.8373

          k =-0.5000-0.5000-0.5000 (  6488 PWs)   bands (ev):

   -86.7327 -68.9217 -68.9217 -68.9192 -68.8902 -68.8685 -68.8685 -68.8561
   -68.8465 -68.8385 -68.8385 -68.8295 -68.8150 -68.8150 -68.8104 -46.9327
   -46.9327 -46.8632 -35.1063 -35.1063 -35.1033 -35.1033 -35.1017 -35.0942
   -35.0910 -35.0910 -35.0787 -35.0781 -35.0781 -35.0759 -35.0737 -35.0737
   -35.0653 -35.0561 -35.0409 -35.0409 -35.0213 -34.9876 -34.9876 -34.9319
   -34.9319 -34.9285 -34.8815 -34.8815 -34.8793 -34.8745 -34.8745 -34.8728
   -34.8656 -34.8620 -34.8620 -34.8496 -34.8406 -34.8373 -34.8373 -34.8250
   -34.8250 -34.8194 -34.8194 -34.8083  11.1915  11.4277  11.4277  11.4528
    11.5204  11.5547  11.5547  12.5402  13.9954  13.9954  14.1790  14.1790
    14.2739  14.5870  14.5870  14.6002  14.6341  14.7034  14.7034  14.7169
    14.7169  14.8336  14.8468  14.8468  14.8470  15.0081  15.0563  15.0563
    15.0765  15.0765  15.2584  15.2876  15.2876  15.3240  15.3438  15.3438
    15.3592  15.3746  15.4378  15.4380  15.4380  15.5464  15.5464  15.6355
    15.6355  16.6406  16.6406  16.6682  17.2977  17.2977  17.4943  17.4943
    17.7171  17.9218  17.9404  17.9404  17.9760  17.9760  18.0083  18.0083
    18.0691  18.1283  18.1283  18.1477  18.1477  18.1645  18.1936  18.2125
    18.2597  18.2597  18.2789  18.2789  18.3115  18.3507  18.3507  18.3876
    18.3937  18.3937  18.4146  18.5396  18.5396  18.5569  18.8182  23.4715
    23.4715

          k =-0.2500 0.0000 0.2500 (  6500 PWs)   bands (ev):

   -86.7327 -68.9315 -68.9185 -68.9177 -68.8876 -68.8713 -68.8553 -68.8532
   -68.8435 -68.8420 -68.8406 -68.8301 -68.8281 -68.8188 -68.8013 -46.9401
   -46.9368 -46.8653 -35.1806 -35.1742 -35.1710 -35.1441 -35.1238 -35.1227
   -35.1060 -35.1026 -35.0840 -35.0651 -35.0556 -35.0531 -35.0359 -35.0179
   -35.0082 -35.0035 -34.9892 -34.9847 -34.9774 -34.9711 -34.9682 -34.9598
   -34.9593 -34.9322 -34.9222 -34.9196 -34.9121 -34.9027 -34.8919 -34.8904
   -34.8808 -34.8653 -34.8583 -34.8518 -34.8429 -34.8318 -34.8267 -34.8191
   -34.8054 -34.8010 -34.7990 -34.7857   8.8261  10.8935  11.1865  12.4129
    12.6423  12.6671  13.0905  13.1859  13.2212  13.3276  13.3853  13.4820
    13.7919  13.9404  13.9815  14.1852  14.3144  14.4578  14.5168  14.7490
    14.7707  14.8231  14.8820  14.9033  15.0236  15.1328  15.1776  15.3509
    15.3955  15.4594  15.5196  15.5948  15.6777  15.7492  15.7859  15.8439
    15.9161  15.9834  16.0373  16.0489  16.0858  16.2107  16.3592  16.4492
    16.5254  16.5635  16.7031  16.8626  16.8824  17.0184  17.1284  17.2026
    17.2667  17.3077  17.4014  17.6250  17.6985  17.7182  17.8500  17.8862
    17.9584  17.9684  18.0598  18.1016  18.1573  18.2295  18.2411  18.2773
    18.2846  18.3212  18.3490  18.3844  18.4518  18.4710  18.5076  18.5244
    18.5578  18.5832  18.9874  19.0081  19.0619  19.4136  19.5174  19.7113
    19.8567

          k = 0.2500-0.2500 0.2500 (  6493 PWs)   bands (ev):

   -86.7327 -68.9292 -68.9194 -68.9179 -68.8881 -68.8710 -68.8602 -68.8525
   -68.8451 -68.8415 -68.8390 -68.8312 -68.8226 -68.8182 -68.8036 -46.9360
   -46.9355 -46.8664 -35.1666 -35.1600 -35.1581 -35.1319 -35.1245 -35.1215
   -35.1160 -35.1043 -35.0771 -35.0630 -35.0583 -35.0524 -35.0437 -35.0392
   -35.0237 -35.0195 -35.0100 -34.9943 -34.9876 -34.9785 -34.9753 -34.9344
   -34.9329 -34.9217 -34.9200 -34.9179 -34.9062 -34.9015 -34.8945 -34.8879
   -34.8810 -34.8642 -34.8561 -34.8552 -34.8380 -34.8238 -34.8228 -34.8180
   -34.8120 -34.8009 -34.7994 -34.7947   9.1239  11.1172  11.2214  11.5199
    12.5752  12.6104  12.8465  13.4804  13.5417  13.5877  13.6409  13.6604
    13.9148  13.9815  14.0878  14.1679  14.2824  14.3735  14.4953  14.6555
    14.7981  14.8296  14.8773  14.9177  14.9758  15.0673  15.1657  15.2807
    15.3068  15.3831  15.4017  15.4749  15.5434  15.6352  15.6548  15.6804
    15.7617  15.7763  15.8322  15.8734  15.9937  16.0530  16.1813  16.2956
    16.5281  16.5703  16.7263  16.8772  16.9167  17.1050  17.1299  17.3613
    17.3800  17.4481  17.4588  17.6269  17.6845  17.7640  17.8519  17.9197
    17.9285  17.9630  18.0275  18.1013  18.1256  18.2235  18.2595  18.2707
    18.2903  18.3321  18.3378  18.3674  18.4484  18.4794  18.5005  18.5228
    18.5382  18.5963  18.6289  18.9661  18.9688  19.0285  20.2038  20.2578
    20.4276

          k = 0.2500-0.2500-0.5000 (  6456 PWs)   bands (ev):

   -86.7326 -68.9255 -68.9221 -68.9178 -68.8887 -68.8705 -68.8636 -68.8527
   -68.8462 -68.8408 -68.8380 -68.8317 -68.8196 -68.8145 -68.8076 -46.9268
   -46.9264 -46.8588 -35.1493 -35.1434 -35.1401 -35.1356 -35.1244 -35.1179
   -35.1047 -35.0909 -35.0860 -35.0791 -35.0714 -35.0579 -35.0548 -35.0431
   -35.0263 -35.0141 -35.0080 -34.9965 -34.9912 -34.9854 -34.9798 -34.9418
   -34.9339 -34.9246 -34.9168 -34.9003 -34.8987 -34.8896 -34.8841 -34.8786
   -34.8722 -34.8626 -34.8559 -34.8468 -34.8421 -34.8295 -34.8229 -34.8154
   -34.8118 -34.8084 -34.7987 -34.7955   9.8567  10.1164  11.7159  11.8754
    11.9095  12.2677  13.1900  13.5020  13.6629  13.8013  13.8386  13.8702
    13.9197  13.9775  14.1499  14.1924  14.2904  14.3941  14.5208  14.5819
    14.7374  14.8493  14.9032  14.9473  14.9751  15.0246  15.1159  15.1395
    15.1829  15.2380  15.3554  15.3999  15.4467  15.4770  15.5567  15.5823
    15.6010  15.6911  15.7203  15.7516  15.8035  15.8913  15.9714  16.3593
    16.4468  16.5985  16.6695  16.8571  16.9933  17.0353  17.3194  17.3474
    17.4174  17.5234  17.5838  17.6617  17.7330  17.7910  17.8335  17.8740
    17.9527  18.0042  18.0636  18.1064  18.1703  18.1918  18.2583  18.2831
    18.3263  18.3416  18.3589  18.3800  18.3997  18.4489  18.4733  18.5270
    18.5421  18.5773  18.6136  18.6285  18.6599  19.7955  19.9662  20.7470
    20.8442

     the Fermi energy is    16.2440 ev

!    total energy              =   -3807.99361058 Ry
     estimated scf accuracy    <          8.8E-10 Ry
     smearing contrib. (-TS)   =       0.01601894 Ry
     internal energy E=F+TS    =   -3808.00962952 Ry

     The total energy is F=E-TS. E is the sum of the following terms:
     one-electron contribution =   -1953.79774995 Ry
     hartree contribution      =    1103.05572604 Ry
     xc contribution           =    -422.84200352 Ry
     ewald contribution        =   -2534.42560209 Ry

     total magnetization       =    36.63 Bohr mag/cell
     absolute magnetization    =    39.11 Bohr mag/cell

     convergence has been achieved in  29 iterations

     negative rho (up, down):  0.000E+00 2.991E-03

     Forces acting on atoms (cartesian axes, Ry/au):

     atom    1 type  2   force =     0.00002729    0.00002729    0.00002729
     atom    2 type  1   force =    -0.00122986   -0.00063260   -0.00063260
     atom    3 type  1   force =    -0.00063260   -0.00122986   -0.00063260
     atom    4 type  1   force =     0.00005231    0.00005231   -0.00079542
     atom    5 type  1   force =    -0.00063260   -0.00063260   -0.00122986
     atom    6 type  1   force =     0.00005231   -0.00079542    0.00005231
     atom    7 type  1   force =    -0.00079542    0.00005231    0.00005231
     atom    8 type  1   force =    -0.00082284   -0.00082284   -0.00082284
     atom    9 type  1   force =     0.00041015    0.00080582    0.00080582
     atom   10 type  1   force =     0.00080582    0.00041015    0.00080582
     atom   11 type  1   force =     0.00067161    0.00067161   -0.00055998
     atom   12 type  1   force =     0.00080582    0.00080582    0.00041015
     atom   13 type  1   force =     0.00067161   -0.00055998    0.00067161
     atom   14 type  1   force =    -0.00055998    0.00067161    0.00067161
     atom   15 type  1   force =     0.00117638    0.00117638    0.00117638

     Total force =     0.004805     Total SCF correction =     0.000068
     Energy error            =      2.9E-05 Ry
     Gradient error          =      1.2E-03 Ry/Bohr

     number of scf cycles    =  13
     number of bfgs steps    =  12

     energy             old  =   -3807.9935811121 Ry
     energy             new  =   -3807.9936105820 Ry

     CASE: energy            _new < energy            _old

     new trust radius        =       0.0022616702 bohr
     new conv_thr            =       0.0000000100 Ry


ATOMIC_POSITIONS (crystal)
Ni               0.0008336469        0.0008336469        0.0008336469
Fe               0.4889079063        0.0114540138        0.0114540138
Fe               0.0114540138        0.4889079063        0.0114540138
Fe               0.4964788993        0.4964788993        0.0062570962
Fe               0.0114540138        0.0114540138        0.4889079063
Fe               0.4964788993        0.0062570962        0.4964788993
Fe               0.0062570962        0.4964788993        0.4964788993
Fe               0.4875402181        0.4875402181        0.4875402181
Fe               0.7538956368        0.2483443425        0.2483443425
Fe               0.2483443425        0.7538956368        0.2483443425
Fe               0.7481598639        0.7481598639        0.2518580444
Fe               0.2483443425        0.2483443425        0.7538956368
Fe               0.7481598639        0.2518580444        0.7481598639
Fe               0.2518580444        0.7481598639        0.7481598639
Fe               0.7518332124        0.7518332124        0.7518332124



     Writing config-only to output data dir ./outdir/fe15_ni1_end.save/ :
     XML data file
     NEW-OLD atomic charge density approx. for the potential

     Check: negative core charge=   -0.000004

     negative rho (up, down):  0.000E+00 3.029E-03
     Generating pointlists ...

     total cpu time spent up to now is     7530.2 secs

     per-process dynamical memory:   179.3 Mb

     Self-consistent Calculation

     iteration #  1     ecut=    45.00 Ry     beta= 0.10
     Davidson diagonalization with overlap
     ethr =  1.00E-06,  avg # of iterations =  5.0

     Threshold (ethr) on eigenvalues was too large:
     Diagonalizing with lowered threshold

     Davidson diagonalization with overlap
     ethr =  6.79E-08,  avg # of iterations =  2.8

     negative rho (up, down):  0.000E+00 3.029E-03

     total cpu time spent up to now is     7590.3 secs

     total energy              =   -3807.99363992 Ry
     estimated scf accuracy    <       0.00015491 Ry

     total magnetization       =    36.63 Bohr mag/cell
     absolute magnetization    =    39.11 Bohr mag/cell

     iteration #  2     ecut=    45.00 Ry     beta= 0.10
     Davidson diagonalization with overlap
     ethr =  6.40E-08,  avg # of iterations =  2.1

     negative rho (up, down):  0.000E+00 3.029E-03

     total cpu time spent up to now is     7613.6 secs

     total energy              =   -3807.99357631 Ry
     estimated scf accuracy    <       0.00243706 Ry

     total magnetization       =    36.62 Bohr mag/cell
     absolute magnetization    =    39.11 Bohr mag/cell

     iteration #  3     ecut=    45.00 Ry     beta= 0.10
     Davidson diagonalization with overlap
     ethr =  6.40E-08,  avg # of iterations =  2.1

     negative rho (up, down):  0.000E+00 3.028E-03

     total cpu time spent up to now is     7637.2 secs

     total energy              =   -3807.99361129 Ry
     estimated scf accuracy    <       0.00002297 Ry

     total magnetization       =    36.63 Bohr mag/cell
     absolute magnetization    =    39.11 Bohr mag/cell

     iteration #  4     ecut=    45.00 Ry     beta= 0.10
     Davidson diagonalization with overlap
     ethr =  9.49E-09,  avg # of iterations =  1.9

     negative rho (up, down):  0.000E+00 3.025E-03

     total cpu time spent up to now is     7658.6 secs

     total energy              =   -3807.99361634 Ry
     estimated scf accuracy    <       0.00000379 Ry

     total magnetization       =    36.63 Bohr mag/cell
     absolute magnetization    =    39.11 Bohr mag/cell

     iteration #  5     ecut=    45.00 Ry     beta= 0.10
     Davidson diagonalization with overlap
     ethr =  1.57E-09,  avg # of iterations =  2.4

     negative rho (up, down):  0.000E+00 3.020E-03

     total cpu time spent up to now is     7681.4 secs

     total energy              =   -3807.99361698 Ry
     estimated scf accuracy    <       0.00000431 Ry

     total magnetization       =    36.63 Bohr mag/cell
     absolute magnetization    =    39.11 Bohr mag/cell

     iteration #  6     ecut=    45.00 Ry     beta= 0.10
     Davidson diagonalization with overlap
     ethr =  1.57E-09,  avg # of iterations =  2.2

     negative rho (up, down):  0.000E+00 3.019E-03

     total cpu time spent up to now is     7705.5 secs

     total energy              =   -3807.99362207 Ry
     estimated scf accuracy    <       0.00003055 Ry

     total magnetization       =    36.63 Bohr mag/cell
     absolute magnetization    =    39.11 Bohr mag/cell

     iteration #  7     ecut=    45.00 Ry     beta= 0.10
     Davidson diagonalization with overlap
     ethr =  1.57E-09,  avg # of iterations =  2.0

     negative rho (up, down):  0.000E+00 3.020E-03

     total cpu time spent up to now is     7729.1 secs

     total energy              =   -3807.99362400 Ry
     estimated scf accuracy    <       0.00000026 Ry

     total magnetization       =    36.63 Bohr mag/cell
     absolute magnetization    =    39.11 Bohr mag/cell

     iteration #  8     ecut=    45.00 Ry     beta= 0.10
     Davidson diagonalization with overlap
     ethr =  1.07E-10,  avg # of iterations =  2.6

     negative rho (up, down):  0.000E+00 3.020E-03

     total cpu time spent up to now is     7752.6 secs

     total energy              =   -3807.99362553 Ry
     estimated scf accuracy    <       0.00000033 Ry

     total magnetization       =    36.63 Bohr mag/cell
     absolute magnetization    =    39.11 Bohr mag/cell

     iteration #  9     ecut=    45.00 Ry     beta= 0.10
     Davidson diagonalization with overlap
     ethr =  1.07E-10,  avg # of iterations =  1.5

     negative rho (up, down):  0.000E+00 3.021E-03

     total cpu time spent up to now is     7773.1 secs

     total energy              =   -3807.99362673 Ry
     estimated scf accuracy    <       0.00000010 Ry

     total magnetization       =    36.63 Bohr mag/cell
     absolute magnetization    =    39.11 Bohr mag/cell

     iteration # 10     ecut=    45.00 Ry     beta= 0.10
     Davidson diagonalization with overlap
     ethr =  4.30E-11,  avg # of iterations =  2.0

     negative rho (up, down):  0.000E+00 3.021E-03

     total cpu time spent up to now is     7796.8 secs

     total energy              =   -3807.99362730 Ry
     estimated scf accuracy    <       0.00000028 Ry

     total magnetization       =    36.62 Bohr mag/cell
     absolute magnetization    =    39.11 Bohr mag/cell

     iteration # 11     ecut=    45.00 Ry     beta= 0.10
     Davidson diagonalization with overlap
     ethr =  4.30E-11,  avg # of iterations =  2.1

     negative rho (up, down):  0.000E+00 3.021E-03

     total cpu time spent up to now is     7820.6 secs

     total energy              =   -3807.99362817 Ry
     estimated scf accuracy    <       0.00000055 Ry

     total magnetization       =    36.62 Bohr mag/cell
     absolute magnetization    =    39.11 Bohr mag/cell

     iteration # 12     ecut=    45.00 Ry     beta= 0.10
     Davidson diagonalization with overlap
     ethr =  4.30E-11,  avg # of iterations =  1.0

     negative rho (up, down):  0.000E+00 3.023E-03

     total cpu time spent up to now is     7840.1 secs

     total energy              =   -3807.99362883 Ry
     estimated scf accuracy    <       0.00000037 Ry

     total magnetization       =    36.62 Bohr mag/cell
     absolute magnetization    =    39.11 Bohr mag/cell

     iteration # 13     ecut=    45.00 Ry     beta= 0.10
     Davidson diagonalization with overlap
     ethr =  4.30E-11,  avg # of iterations =  3.1

     negative rho (up, down):  0.000E+00 3.023E-03

     total cpu time spent up to now is     7866.4 secs

     total energy              =   -3807.99362872 Ry
     estimated scf accuracy    <       0.00000325 Ry

     total magnetization       =    36.62 Bohr mag/cell
     absolute magnetization    =    39.11 Bohr mag/cell

     iteration # 14     ecut=    45.00 Ry     beta= 0.10
     Davidson diagonalization with overlap
     ethr =  4.30E-11,  avg # of iterations =  3.1

     negative rho (up, down):  0.000E+00 3.023E-03

     total cpu time spent up to now is     7892.0 secs

     total energy              =   -3807.99362936 Ry
     estimated scf accuracy    <       0.00000072 Ry

     total magnetization       =    36.62 Bohr mag/cell
     absolute magnetization    =    39.11 Bohr mag/cell

     iteration # 15     ecut=    45.00 Ry     beta= 0.10
     Davidson diagonalization with overlap
     ethr =  4.30E-11,  avg # of iterations =  1.7

     negative rho (up, down):  0.000E+00 3.024E-03

     total cpu time spent up to now is     7912.9 secs

     total energy              =   -3807.99362973 Ry
     estimated scf accuracy    <       0.00000034 Ry

     total magnetization       =    36.62 Bohr mag/cell
     absolute magnetization    =    39.11 Bohr mag/cell

     iteration # 16     ecut=    45.00 Ry     beta= 0.10
     Davidson diagonalization with overlap
     ethr =  4.30E-11,  avg # of iterations =  2.0

     negative rho (up, down):  0.000E+00 3.024E-03

     Magnetic moment per site  (integrated on atomic sphere of radius R)
     atom   1 (R=0.176)  charge= 16.5657  magn=  0.9604
     atom   2 (R=0.176)  charge= 14.2919  magn=  2.6206
     atom   3 (R=0.176)  charge= 14.2919  magn=  2.6206
     atom   4 (R=0.176)  charge= 14.2960  magn=  2.6419
     atom   5 (R=0.176)  charge= 14.2919  magn=  2.6206
     atom   6 (R=0.176)  charge= 14.2960  magn=  2.6419
     atom   7 (R=0.176)  charge= 14.2960  magn=  2.6419
     atom   8 (R=0.176)  charge= 14.2805  magn=  2.6997
     atom   9 (R=0.176)  charge= 14.3640  magn=  2.4395
     atom  10 (R=0.176)  charge= 14.3640  magn=  2.4395
     atom  11 (R=0.176)  charge= 14.2955  magn=  2.6632
     atom  12 (R=0.176)  charge= 14.3640  magn=  2.4395
     atom  13 (R=0.176)  charge= 14.2955  magn=  2.6632
     atom  14 (R=0.176)  charge= 14.2955  magn=  2.6632
     atom  15 (R=0.176)  charge= 14.2485  magn=  2.7930

     total cpu time spent up to now is     7935.3 secs

     End of self-consistent calculation

 ------ SPIN UP ------------


          k = 0.0000 0.0000 0.0000 (  6451 PWs)   bands (ev):

   -88.0750 -72.3878 -72.2651 -72.2559 -72.2559 -72.2085 -72.1585 -72.1585
   -72.1557 -72.1232 -72.1227 -72.1227 -71.9045 -71.9045 -71.8988 -48.2764
   -48.2764 -48.1702 -38.4898 -38.3993 -38.3993 -38.3503 -38.3455 -38.3455
   -38.3218 -38.2901 -38.2894 -38.2894 -38.2653 -38.2539 -38.2471 -38.2471
   -38.2307 -38.2307 -38.2081 -38.1792 -38.1792 -38.1520 -38.1520 -38.1178
   -38.1178 -38.0934 -38.0933 -38.0835 -38.0835 -38.0776 -38.0729 -38.0729
   -38.0606 -38.0606 -38.0572 -37.9690 -37.9170 -37.9170 -37.8614 -37.8614
   -37.8031 -37.8021 -37.8009 -37.8009   8.0827  11.4031  11.4227  11.4227
    11.4647  11.5105  11.5105  11.5496  11.5496  11.6707  11.7498  11.7498
    12.0841  12.0841  12.4160  12.7166  12.7247  12.7247  12.8149  12.8149
    12.8369  12.9582  12.9582  12.9889  13.1676  13.1676  13.2196  13.2407
    13.4350  13.4350  13.4685  13.5995  13.5995  13.7898  13.8025  13.8025
    14.0493  14.0493  14.0684  14.1139  14.1231  14.1231  14.1946  14.1946
    14.2750  14.5418  14.5708  14.5708  14.7309  14.8253  14.8253  14.8539
    14.8539  14.9507  14.9991  15.0050  15.0050  15.0740  15.0740  15.1317
    15.1317  15.1998  15.1998  15.2120  15.2120  15.2254  15.2441  15.4531
    15.5791  15.5791  15.9894  15.9894  16.0421  16.0421  16.1369  16.1369
    16.1433  16.1829  16.2854  16.2854  16.3538  16.5637  16.6317  16.6317
    16.6693

          k = 0.0000 0.0000 0.2500 (  6495 PWs)   bands (ev):

   -88.0751 -72.3878 -72.2641 -72.2570 -72.2560 -72.2085 -72.1585 -72.1585
   -72.1557 -72.1235 -72.1229 -72.1225 -71.9046 -71.9039 -71.8994 -48.2895
   -48.2851 -48.1809 -38.4910 -38.3999 -38.3978 -38.3552 -38.3468 -38.3466
   -38.3207 -38.2975 -38.2877 -38.2835 -38.2707 -38.2576 -38.2523 -38.2404
   -38.2309 -38.2307 -38.2117 -38.1913 -38.1892 -38.1640 -38.1486 -38.1404
   -38.1220 -38.1091 -38.0924 -38.0875 -38.0795 -38.0701 -38.0650 -38.0649
   -38.0572 -38.0484 -38.0443 -37.9656 -37.9269 -37.9227 -37.8586 -37.8561
   -37.8134 -37.8133 -37.8088 -37.8077   8.3828  10.5371  11.5069  11.5080
    11.5414  11.5827  11.5997  11.6300  11.6968  11.7773  11.8270  11.8681
    12.1375  12.1776  12.4392  12.6356  12.6723  12.6817  12.7444  12.7713
    12.8669  12.8839  12.9328  13.1009  13.1059  13.1564  13.2109  13.2464
    13.3305  13.5709  13.5732  13.5994  13.7248  13.7379  13.7645  13.7874
    13.8196  13.8542  13.9043  14.0821  14.0865  14.2789  14.3111  14.3583
    14.3723  14.4677  14.5363  14.5833  14.6072  14.6076  14.6346  14.7123
    14.7825  14.8629  14.9324  14.9573  15.0103  15.0177  15.0770  15.1021
    15.1075  15.1348  15.1580  15.1599  15.1818  15.1912  15.2347  15.3025
    15.3205  15.4636  15.5256  15.5306  15.5999  15.8999  16.0512  16.0770
    16.1067  16.1613  16.2779  16.2847  16.4389  16.6473  16.7911  16.8642
    17.0158

          k = 0.0000 0.0000-0.5000 (  6480 PWs)   bands (ev):

   -88.0751 -72.3878 -72.2626 -72.2586 -72.2560 -72.2086 -72.1585 -72.1585
   -72.1558 -72.1237 -72.1229 -72.1223 -71.9046 -71.9026 -71.9006 -48.2895
   -48.2804 -48.1781 -38.4890 -38.3951 -38.3886 -38.3578 -38.3442 -38.3404
   -38.3003 -38.2971 -38.2960 -38.2908 -38.2769 -38.2498 -38.2494 -38.2451
   -38.2357 -38.2256 -38.2187 -38.1977 -38.1951 -38.1816 -38.1506 -38.1472
   -38.1359 -38.1075 -38.0898 -38.0884 -38.0766 -38.0699 -38.0621 -38.0591
   -38.0545 -38.0359 -38.0286 -37.9588 -37.9336 -37.9227 -37.8523 -37.8435
   -37.8249 -37.8207 -37.8101 -37.8079   9.1389   9.4050  11.6243  11.6433
    11.6503  11.7093  11.7693  11.7931  11.8426  11.8795  11.9441  12.0641
    12.0709  12.2032  12.3261  12.3563  12.3953  12.6181  12.6306  12.6396
    12.9686  12.9767  13.2128  13.2305  13.2836  13.2867  13.2893  13.4171
    13.4474  13.4922  13.5636  13.5911  13.6109  13.6395  13.6536  13.6866
    13.7559  13.7813  13.8321  13.9400  13.9586  14.1265  14.1814  14.2021
    14.2513  14.3035  14.3830  14.4675  14.5060  14.5346  14.6177  14.6430
    14.6907  14.7571  14.7794  14.9054  15.0176  15.0548  15.0724  15.0797
    15.0953  15.1043  15.1568  15.1711  15.1750  15.2029  15.2202  15.2515
    15.4010  15.5197  15.6493  15.6617  15.6810  15.7342  15.7644  15.8229
    15.9163  16.2463  16.4304  16.4668  16.5452  16.6050  16.6681  16.7207
    16.7389

          k = 0.0000 0.2500 0.2500 (  6500 PWs)   bands (ev):

   -88.0751 -72.3878 -72.2631 -72.2576 -72.2565 -72.2086 -72.1587 -72.1580
   -72.1561 -72.1235 -72.1230 -72.1224 -71.9043 -71.9035 -71.9002 -48.2902
   -48.2844 -48.1845 -38.4904 -38.3961 -38.3930 -38.3576 -38.3441 -38.3424
   -38.3155 -38.3007 -38.2879 -38.2864 -38.2794 -38.2580 -38.2564 -38.2338
   -38.2328 -38.2309 -38.2054 -38.2050 -38.1870 -38.1626 -38.1510 -38.1392
   -38.1244 -38.1213 -38.1029 -38.0940 -38.0783 -38.0679 -38.0669 -38.0551
   -38.0507 -38.0488 -38.0453 -37.9589 -37.9279 -37.9249 -37.8519 -37.8467
   -37.8223 -37.8137 -37.8119 -37.8077   8.6823  10.6530  10.8034  11.4229
    11.6846  11.6921  11.7187  11.7404  11.8181  11.9188  11.9562  12.0037
    12.2445  12.2488  12.4926  12.5521  12.6049  12.7004  12.7827  12.8146
    12.8668  12.9173  12.9636  12.9656  13.0273  13.0402  13.2191  13.2722
    13.3959  13.4160  13.5119  13.5771  13.5925  13.6863  13.7091  13.7969
    13.8044  13.9097  13.9268  14.0450  14.1108  14.2124  14.2488  14.2922
    14.3257  14.3300  14.4039  14.4343  14.5280  14.5642  14.6316  14.6394
    14.6925  14.7402  14.7887  14.8195  14.8915  14.9546  15.0134  15.0301
    15.0670  15.0853  15.1111  15.1665  15.1965  15.2177  15.2673  15.3486
    15.3550  15.3969  15.4058  15.4805  15.5206  15.5233  15.5736  15.7267
    15.8039  15.8155  16.0773  16.5287  16.5515  17.6010  17.6498  17.8439
    17.9961

          k = 0.0000 0.2500-0.5000 (  6452 PWs)   bands (ev):

   -88.0750 -72.3877 -72.2617 -72.2585 -72.2566 -72.2086 -72.1588 -72.1578
   -72.1560 -72.1237 -72.1230 -72.1221 -71.9040 -71.9025 -71.9011 -48.2803
   -48.2740 -48.1706 -38.4864 -38.3897 -38.3848 -38.3584 -38.3415 -38.3399
   -38.3053 -38.2987 -38.2942 -38.2862 -38.2809 -38.2622 -38.2507 -38.2405
   -38.2293 -38.2232 -38.2113 -38.1937 -38.1879 -38.1638 -38.1488 -38.1446
   -38.1245 -38.1103 -38.0934 -38.0878 -38.0768 -38.0739 -38.0659 -38.0623
   -38.0552 -38.0444 -38.0375 -37.9496 -37.9316 -37.9238 -37.8443 -37.8358
   -37.8234 -37.8196 -37.8098 -37.8056   9.4115   9.6580  11.0633  11.2439
    11.8399  11.8756  11.9674  11.9985  12.0238  12.0318  12.0703  12.1593
    12.1839  12.2888  12.3502  12.4246  12.4655  12.6473  12.7351  12.7470
    12.9656  12.9923  13.0637  13.0949  13.1255  13.1376  13.1971  13.2901
    13.3540  13.4076  13.5292  13.5454  13.5656  13.5987  13.6459  13.6658
    13.6851  13.7717  13.7924  13.8404  13.9244  13.9591  14.0139  14.0959
    14.1660  14.3275  14.4371  14.4563  14.4656  14.5176  14.6364  14.6568
    14.6819  14.7198  14.7585  14.7636  14.8131  14.8728  14.9161  14.9925
    15.0440  15.0477  15.1117  15.1511  15.1726  15.2013  15.2263  15.2341
    15.2994  15.3585  15.3783  15.4023  15.4730  15.4753  15.5289  15.6453
    15.7664  15.9561  16.0963  17.0258  17.0655  17.1494  17.2252  18.7266
    18.8121

          k = 0.0000-0.5000-0.5000 (  6496 PWs)   bands (ev):

   -88.0751 -72.3877 -72.2605 -72.2591 -72.2575 -72.2087 -72.1589 -72.1573
   -72.1565 -72.1239 -72.1232 -72.1221 -71.9030 -71.9026 -71.9023 -48.2917
   -48.2838 -48.1810 -38.4860 -38.3878 -38.3796 -38.3631 -38.3410 -38.3397
   -38.3153 -38.2982 -38.2962 -38.2887 -38.2887 -38.2712 -38.2545 -38.2378
   -38.2310 -38.2275 -38.2037 -38.1936 -38.1861 -38.1559 -38.1507 -38.1263
   -38.1191 -38.1008 -38.0998 -38.0954 -38.0905 -38.0878 -38.0815 -38.0755
   -38.0632 -38.0482 -38.0468 -37.9426 -37.9346 -37.9281 -37.8385 -37.8292
   -37.8284 -37.8187 -37.8165 -37.8051  10.0923  10.1600  10.2065  10.6508
    12.0560  12.0782  12.1052  12.1510  12.2184  12.2360  12.2481  12.2988
    12.3536  12.3823  12.5365  12.5812  12.6310  12.6340  12.6711  12.6765
    12.8274  12.8677  12.8688  12.8990  12.9511  12.9984  13.0134  13.2497
    13.3371  13.3749  13.4331  13.4351  13.5083  13.5334  13.5437  13.5562
    13.5995  13.6790  13.7142  13.7465  13.7760  13.7781  13.8681  14.0543
    14.1203  14.3077  14.3163  14.4277  14.4899  14.5675  14.6060  14.6436
    14.6844  14.6871  14.7272  14.7420  14.7862  14.8002  14.8347  14.9093
    14.9283  14.9578  15.0069  15.0318  15.0540  15.0978  15.1371  15.1870
    15.2012  15.2067  15.2263  15.3085  15.3850  15.4305  15.4480  15.6626
    15.7797  16.0467  16.2028  17.8320  17.8813  17.9663  18.0547  18.1368
    18.2929

          k = 0.2500 0.2500 0.2500 (  6493 PWs)   bands (ev):

   -88.0751 -72.3877 -72.2621 -72.2575 -72.2575 -72.2087 -72.1580 -72.1580
   -72.1568 -72.1230 -72.1230 -72.1230 -71.9034 -71.9034 -71.9010 -48.2871
   -48.2871 -48.1804 -38.4883 -38.3896 -38.3896 -38.3595 -38.3395 -38.3395
   -38.3079 -38.2997 -38.2896 -38.2881 -38.2881 -38.2553 -38.2553 -38.2375
   -38.2351 -38.2351 -38.2013 -38.2013 -38.1922 -38.1560 -38.1560 -38.1356
   -38.1356 -38.1172 -38.1090 -38.0813 -38.0813 -38.0709 -38.0709 -38.0671
   -38.0463 -38.0463 -38.0448 -37.9532 -37.9284 -37.9284 -37.8422 -37.8422
   -37.8282 -37.8129 -37.8106 -37.8106   8.9744  10.8722  10.8722  11.0683
    11.6212  11.6212  11.6921  11.9046  11.9046  12.0213  12.1420  12.1420
    12.4017  12.4017  12.5249  12.5557  12.6071  12.7154  12.7154  12.8314
    12.8314  12.9188  12.9639  13.0133  13.0133  13.1229  13.1229  13.2839
    13.3568  13.3568  13.3604  13.4292  13.4292  13.5994  13.5994  13.7212
    13.7212  13.7394  13.8058  13.8999  13.8999  13.9704  14.1623  14.1623
    14.2440  14.2440  14.3481  14.5430  14.5436  14.5436  14.5823  14.6867
    14.6867  14.7859  14.8199  14.8390  14.8390  14.9217  14.9762  14.9762
    15.0475  15.0560  15.0560  15.1719  15.1719  15.2006  15.2006  15.2067
    15.2295  15.3216  15.3216  15.5289  15.5289  15.6125  15.6904  15.6904
    15.7396  15.7396  15.8640  16.5745  16.5745  16.6460  18.5269  18.5269
    18.7148

          k = 0.2500 0.2500-0.5000 (  6456 PWs)   bands (ev):

   -88.0750 -72.3876 -72.2610 -72.2585 -72.2574 -72.2086 -72.1583 -72.1579
   -72.1564 -72.1236 -72.1230 -72.1224 -71.9034 -71.9027 -71.9016 -48.2816
   -48.2759 -48.1704 -38.4850 -38.3856 -38.3816 -38.3594 -38.3390 -38.3382
   -38.2989 -38.2974 -38.2937 -38.2934 -38.2837 -38.2595 -38.2590 -38.2350
   -38.2305 -38.2258 -38.2066 -38.1970 -38.1820 -38.1535 -38.1531 -38.1482
   -38.1219 -38.1152 -38.0995 -38.0977 -38.0928 -38.0789 -38.0651 -38.0560
   -38.0460 -38.0452 -38.0363 -37.9469 -37.9330 -37.9274 -37.8429 -37.8341
   -37.8271 -37.8185 -37.8092 -37.8065   9.6863   9.9157  11.2947  11.3090
    11.3773  11.5783  12.1358  12.1558  12.1896  12.1987  12.2007  12.2188
    12.3019  12.3617  12.4088  12.5227  12.5588  12.6763  12.7482  12.8499
    12.9550  12.9932  13.0007  13.0412  13.0477  13.1138  13.1545  13.1876
    13.2323  13.2755  13.3713  13.4363  13.4483  13.4704  13.5123  13.5318
    13.5593  13.5741  13.5850  13.6205  13.6969  13.7785  13.8172  13.9453
    14.0744  14.2143  14.3461  14.4051  14.5591  14.6082  14.6253  14.6994
    14.7252  14.7294  14.7619  14.8196  14.8474  14.9159  14.9635  15.0322
    15.0446  15.0779  15.1198  15.1303  15.1685  15.1943  15.1962  15.2486
    15.2544  15.3327  15.3753  15.4239  15.4641  15.7057  15.7092  15.7751
    15.8193  15.8456  15.9077  15.9967  16.0500  17.7063  17.8973  19.2284
    19.2461

          k = 0.2500-0.5000-0.5000 (  6472 PWs)   bands (ev):

   -88.0751 -72.3876 -72.2600 -72.2589 -72.2579 -72.2087 -72.1585 -72.1574
   -72.1568 -72.1236 -72.1231 -72.1223 -71.9031 -71.9023 -71.9022 -48.2820
   -48.2814 -48.1754 -38.4838 -38.3804 -38.3759 -38.3612 -38.3386 -38.3377
   -38.3057 -38.2941 -38.2912 -38.2868 -38.2861 -38.2655 -38.2576 -38.2413
   -38.2277 -38.2241 -38.2016 -38.1981 -38.1757 -38.1546 -38.1536 -38.1336
   -38.1287 -38.1241 -38.1217 -38.1130 -38.1090 -38.0655 -38.0598 -38.0551
   -38.0479 -38.0387 -38.0353 -37.9439 -37.9374 -37.9320 -37.8404 -37.8333
   -37.8328 -37.8185 -37.8114 -37.8084  10.3565  10.4327  10.4704  10.8648
    11.8008  11.9193  11.9279  12.1648  12.2470  12.2731  12.3370  12.5478
    12.5570  12.5979  12.6279  12.6733  12.6807  12.7076  12.7076  12.7747
    12.8058  12.8619  12.8700  12.9065  12.9491  12.9668  13.0062  13.1056
    13.1431  13.1923  13.2017  13.2923  13.3086  13.3227  13.3567  13.3716
    13.4146  13.4393  13.4508  13.5481  13.5685  13.5758  13.6439  13.6692
    13.7718  14.2220  14.2237  14.2878  14.6917  14.6972  14.7213  14.8024
    14.8159  14.8410  14.8649  14.8770  14.9366  14.9442  15.0037  15.0281
    15.0597  15.1104  15.1279  15.1355  15.1777  15.2068  15.2083  15.2184
    15.2519  15.2576  15.2971  15.3620  15.3889  15.4216  15.4947  15.6093
    15.6574  15.8192  15.9417  16.6915  16.7424  16.7525  16.8748  20.1734
    20.3084

          k =-0.5000-0.5000-0.5000 (  6488 PWs)   bands (ev):

   -88.0750 -72.3876 -72.2591 -72.2589 -72.2589 -72.2087 -72.1577 -72.1576
   -72.1576 -72.1230 -72.1230 -72.1229 -71.9032 -71.9022 -71.9022 -48.2838
   -48.2838 -48.1775 -38.4819 -38.3715 -38.3715 -38.3618 -38.3354 -38.3354
   -38.3053 -38.2879 -38.2879 -38.2845 -38.2808 -38.2575 -38.2575 -38.2511
   -38.2250 -38.2250 -38.2054 -38.2054 -38.1640 -38.1553 -38.1553 -38.1385
   -38.1364 -38.1364 -38.1351 -38.1272 -38.1272 -38.0489 -38.0459 -38.0459
   -38.0437 -38.0324 -38.0324 -37.9418 -37.9418 -37.9407 -37.8416 -37.8355
   -37.8355 -37.8214 -37.8133 -37.8133  10.9675  11.1089  11.1089  11.1598
    11.1898  11.2051  11.2051  12.0622  12.6419  12.6419  12.6890  12.6890
    12.7003  12.7141  12.7141  12.7151  12.7298  12.7773  12.7773  12.8195
    12.8535  12.8535  12.9000  12.9000  12.9536  12.9536  12.9752  13.0292
    13.0292  13.0844  13.1023  13.1335  13.1335  13.1449  13.1581  13.1814
    13.1814  13.2006  13.2036  13.2036  13.2207  13.2505  13.2505  13.5799
    13.5799  14.1683  14.1897  14.1897  14.7569  14.7569  14.8606  14.8606
    14.8700  14.9346  14.9346  14.9622  14.9622  14.9915  15.0249  15.0857
    15.0857  15.1419  15.1419  15.1431  15.2287  15.3301  15.3301  15.3686
    15.3686  15.3960  15.4460  15.4460  15.5244  15.5879  15.5879  15.7128
    15.7128  15.7523  15.8205  16.0425  16.0425  16.0637  16.1324  22.3784
    22.3784

          k =-0.2500 0.0000 0.2500 (  6500 PWs)   bands (ev):

   -88.0751 -72.3878 -72.2632 -72.2573 -72.2566 -72.2086 -72.1589 -72.1582
   -72.1557 -72.1238 -72.1230 -72.1222 -71.9041 -71.9038 -71.9000 -48.2913
   -48.2879 -48.1797 -38.4890 -38.3946 -38.3943 -38.3578 -38.3464 -38.3454
   -38.3126 -38.3016 -38.2888 -38.2866 -38.2750 -38.2637 -38.2542 -38.2378
   -38.2346 -38.2285 -38.2181 -38.1933 -38.1880 -38.1574 -38.1521 -38.1366
   -38.1239 -38.1103 -38.0931 -38.0884 -38.0767 -38.0755 -38.0714 -38.0676
   -38.0550 -38.0492 -38.0439 -37.9599 -37.9287 -37.9250 -37.8561 -37.8475
   -37.8185 -37.8155 -37.8100 -37.8044   8.6826  10.6172  10.8453  11.4139
    11.6877  11.7007  11.7254  11.7675  11.7847  11.9291  11.9434  11.9965
    12.2281  12.2421  12.4979  12.5632  12.6008  12.7149  12.7694  12.8273
    12.8525  12.8976  12.9693  13.0102  13.0128  13.0361  13.2169  13.3014
    13.4118  13.4358  13.5072  13.5368  13.6315  13.6653  13.7132  13.7693
    13.8040  13.8946  13.9116  14.0264  14.1024  14.1923  14.2668  14.3268
    14.3737  14.3928  14.4090  14.4379  14.4643  14.5203  14.5930  14.6222
    14.6651  14.7726  14.8252  14.8624  14.9086  14.9379  15.0046  15.0432
    15.0699  15.1207  15.1411  15.1630  15.1785  15.2155  15.2487  15.3120
    15.3567  15.4049  15.4401  15.4598  15.5226  15.5419  15.6022  15.6323
    15.6928  15.7779  16.2206  16.5285  16.5668  17.5023  17.6653  17.8458
    18.0757

          k = 0.2500-0.2500 0.2500 (  6493 PWs)   bands (ev):

   -88.0751 -72.3877 -72.2625 -72.2575 -72.2571 -72.2086 -72.1589 -72.1580
   -72.1560 -72.1238 -72.1230 -72.1222 -71.9039 -71.9034 -71.9005 -48.2871
   -48.2867 -48.1807 -38.4876 -38.3901 -38.3885 -38.3589 -38.3439 -38.3417
   -38.3049 -38.3039 -38.2892 -38.2881 -38.2809 -38.2653 -38.2587 -38.2381
   -38.2328 -38.2239 -38.2131 -38.1986 -38.1810 -38.1594 -38.1534 -38.1334
   -38.1277 -38.1204 -38.1163 -38.0889 -38.0865 -38.0716 -38.0655 -38.0574
   -38.0500 -38.0436 -38.0432 -37.9562 -37.9284 -37.9282 -37.8523 -37.8396
   -37.8231 -37.8176 -37.8083 -37.8076   8.9751  10.8225  10.8720  11.1271
    11.5873  11.6098  11.7390  11.8926  11.9342  12.0441  12.1227  12.1275
    12.3835  12.3902  12.5267  12.5587  12.5791  12.7320  12.7363  12.8289
    12.8618  12.9001  12.9322  13.0285  13.0507  13.1108  13.1270  13.3192
    13.3219  13.3460  13.3740  13.4306  13.4604  13.5859  13.6033  13.7084
    13.7283  13.7518  13.7572  13.8833  13.9625  14.0055  14.1339  14.1732
    14.2148  14.2165  14.3731  14.4504  14.4581  14.5448  14.5501  14.6699
    14.7125  14.7455  14.7972  14.8825  14.9038  14.9289  14.9780  14.9887
    15.0382  15.0811  15.1079  15.1201  15.1553  15.1721  15.2072  15.2131
    15.3277  15.3346  15.3872  15.4718  15.5307  15.5772  15.6138  15.6950
    15.7458  15.8625  15.8665  16.5539  16.5553  16.6695  18.4701  18.5309
    18.7705

          k = 0.2500-0.2500-0.5000 (  6456 PWs)   bands (ev):

   -88.0750 -72.3876 -72.2612 -72.2586 -72.2571 -72.2086 -72.1588 -72.1576
   -72.1562 -72.1238 -72.1231 -72.1221 -71.9038 -71.9024 -71.9014 -48.2778
   -48.2773 -48.1730 -38.4853 -38.3853 -38.3813 -38.3601 -38.3413 -38.3381
   -38.3063 -38.2999 -38.2902 -38.2828 -38.2814 -38.2618 -38.2600 -38.2376
   -38.2300 -38.2239 -38.2027 -38.1977 -38.1751 -38.1634 -38.1490 -38.1404
   -38.1320 -38.1194 -38.1149 -38.1002 -38.0903 -38.0709 -38.0625 -38.0535
   -38.0452 -38.0440 -38.0291 -37.9491 -37.9335 -37.9273 -37.8427 -37.8355
   -37.8261 -37.8189 -37.8097 -37.8074   9.6858   9.9165  11.2513  11.3480
    11.3567  11.6151  12.1155  12.1471  12.1714  12.1999  12.2340  12.2483
    12.2925  12.3729  12.3948  12.5165  12.5606  12.6933  12.7327  12.8463
    12.9325  12.9727  13.0096  13.0301  13.0788  13.1142  13.1547  13.2111
    13.2665  13.3269  13.3662  13.4031  13.4424  13.4647  13.4992  13.5172
    13.5402  13.5507  13.5865  13.5898  13.7182  13.7926  13.8100  13.9591
    14.0633  14.2362  14.3342  14.4082  14.5372  14.5751  14.6418  14.6543
    14.7060  14.7412  14.7958  14.8033  14.8128  14.9423  14.9689  15.0189
    15.0325  15.0715  15.1266  15.1452  15.1615  15.1856  15.2042  15.2554
    15.2746  15.3483  15.3868  15.4592  15.4687  15.6316  15.7077  15.8118
    15.8645  15.8683  15.8916  16.0330  16.0533  17.6804  17.8693  19.1702
    19.2447

 ------ SPIN DOWN ----------


          k = 0.0000 0.0000 0.0000 (  6451 PWs)   bands (ev):

   -86.7331 -68.9368 -68.9165 -68.9165 -68.8869 -68.8692 -68.8492 -68.8492
   -68.8415 -68.8415 -68.8399 -68.8366 -68.8366 -68.8233 -68.7959 -46.9259
   -46.9259 -46.8567 -35.2009 -35.1887 -35.1887 -35.1575 -35.1393 -35.1393
   -35.0711 -35.0682 -35.0682 -35.0248 -35.0154 -35.0154 -35.0040 -35.0040
   -35.0018 -34.9966 -34.9966 -34.9770 -34.9717 -34.9717 -34.9617 -34.9606
   -34.9539 -34.9539 -34.9462 -34.9430 -34.9430 -34.9247 -34.9149 -34.9149
   -34.8972 -34.8972 -34.8832 -34.8485 -34.8220 -34.8220 -34.8083 -34.8083
   -34.7844 -34.7778 -34.7778 -34.7716   8.2173  12.1787  12.2453  12.2453
    12.3483  12.3483  12.5164  12.9129  12.9129  13.0125  13.0318  13.0318
    13.5841  13.7556  13.7556  14.3316  14.3316  14.4338  14.7060  14.7060
    14.7441  14.9184  14.9184  14.9840  15.2054  15.2054  15.3568  15.4642
    15.4642  15.6873  15.7347  15.9128  16.0648  16.0648  16.1439  16.1439
    16.3665  16.3665  16.3785  16.4710  16.4710  16.4873  16.5419  16.5419
    16.5876  16.7410  16.7410  16.9001  17.0407  17.0407  17.0433  17.2813
    17.2813  17.3320  17.3320  17.4204  17.5707  17.5707  17.6565  17.9000
    17.9866  17.9866  18.0276  18.1027  18.1027  18.2231  18.2231  18.3542
    18.3542  18.3975  18.4116  18.4133  18.4133  18.4410  18.5780  18.5780
    18.7860  18.7860  18.8163  18.8163  18.8895  18.8895  18.9214  18.9632
    19.0481

          k = 0.0000 0.0000 0.2500 (  6495 PWs)   bands (ev):

   -86.7331 -68.9339 -68.9188 -68.9165 -68.8872 -68.8706 -68.8547 -68.8488
   -68.8423 -68.8420 -68.8406 -68.8367 -68.8281 -68.8212 -68.7988 -46.9386
   -46.9344 -46.8672 -35.1929 -35.1819 -35.1797 -35.1477 -35.1364 -35.1356
   -35.0820 -35.0794 -35.0741 -35.0644 -35.0609 -35.0460 -35.0349 -35.0193
   -35.0149 -35.0051 -34.9821 -34.9768 -34.9739 -34.9665 -34.9605 -34.9493
   -34.9319 -34.9310 -34.9226 -34.9187 -34.9168 -34.9100 -34.9022 -34.8950
   -34.8935 -34.8832 -34.8769 -34.8555 -34.8344 -34.8313 -34.8207 -34.8174
   -34.8053 -34.7972 -34.7946 -34.7885   8.5214  10.7967  12.4055  12.4087
    12.5050  12.5714  12.9263  12.9567  12.9974  13.0020  13.2117  13.3334
    13.6810  13.8735  13.8803  14.2556  14.3437  14.3883  14.5273  14.7953
    14.8060  14.8598  14.9291  15.0173  15.0618  15.0850  15.3684  15.3832
    15.4413  15.4824  15.6257  15.8080  15.8967  15.9085  15.9810  16.0604
    16.0859  16.1144  16.1732  16.2409  16.2701  16.3491  16.3495  16.4861
    16.5078  16.6844  16.7816  16.8501  16.8802  16.8937  17.0876  17.1845
    17.2090  17.3115  17.4010  17.6561  17.7208  17.7372  17.7978  17.8722
    17.9260  17.9680  18.0551  18.0702  18.1565  18.1629  18.2727  18.3225
    18.3507  18.3715  18.4095  18.4828  18.5214  18.6297  18.6511  18.7026
    18.7080  18.7324  18.8333  18.8462  18.8695  18.9162  18.9527  18.9706
    18.9882

          k = 0.0000 0.0000-0.5000 (  6480 PWs)   bands (ev):

   -86.7332 -68.9289 -68.9231 -68.9165 -68.8875 -68.8723 -68.8575 -68.8483
   -68.8425 -68.8424 -68.8405 -68.8368 -68.8262 -68.8137 -68.8042 -46.9386
   -46.9300 -46.8642 -35.1459 -35.1454 -35.1410 -35.1369 -35.1363 -35.1222
   -35.1215 -35.1154 -35.1123 -35.1008 -35.0764 -35.0698 -35.0583 -35.0229
   -35.0180 -35.0027 -34.9930 -34.9877 -34.9807 -34.9696 -34.9632 -34.9439
   -34.9237 -34.9097 -34.9044 -34.8999 -34.8930 -34.8861 -34.8840 -34.8793
   -34.8732 -34.8715 -34.8544 -34.8521 -34.8443 -34.8362 -34.8285 -34.8229
   -34.8207 -34.8142 -34.8139 -34.8041   9.2878   9.5747  12.6243  12.6873
    12.7060  12.7535  12.8756  12.8958  12.9314  13.1455  13.5401  13.6260
    13.7717  13.9522  14.0026  14.0625  14.1148  14.3239  14.4470  14.5497
    14.8536  14.8629  14.9450  15.0832  15.1884  15.2675  15.3512  15.3828
    15.4325  15.4342  15.4484  15.5477  15.5783  15.5905  15.6515  15.8066
    15.8330  15.8503  15.9554  15.9987  16.0823  16.1695  16.1808  16.3317
    16.3521  16.6290  16.7570  17.0376  17.0639  17.2410  17.3236  17.3426
    17.4192  17.4580  17.4969  17.6388  17.6973  17.7429  17.7810  17.8302
    17.8965  17.9269  18.0787  18.2035  18.2466  18.3051  18.3243  18.3389
    18.3632  18.4045  18.4310  18.4582  18.4819  18.5010  18.5191  18.6085
    18.6120  18.7165  18.7777  18.8456  18.8476  18.9561  19.0129  19.0588
    19.0690

          k = 0.0000 0.2500 0.2500 (  6500 PWs)   bands (ev):

   -86.7332 -68.9311 -68.9199 -68.9174 -68.8876 -68.8697 -68.8594 -68.8514
   -68.8440 -68.8420 -68.8399 -68.8314 -68.8227 -68.8223 -68.8014 -46.9393
   -46.9336 -46.8707 -35.1851 -35.1665 -35.1567 -35.1349 -35.1267 -35.1257
   -35.1182 -35.1016 -35.0946 -35.0852 -35.0570 -35.0547 -35.0367 -35.0143
   -35.0062 -35.0026 -34.9940 -34.9778 -34.9767 -34.9724 -34.9674 -34.9585
   -34.9401 -34.9394 -34.9249 -34.9235 -34.9058 -34.8978 -34.8915 -34.8810
   -34.8780 -34.8643 -34.8591 -34.8562 -34.8389 -34.8303 -34.8298 -34.8225
   -34.8183 -34.8055 -34.7913 -34.7877   8.8245  10.9713  11.1014  12.4239
    12.6439  12.6765  13.0587  13.1792  13.2269  13.2586  13.4198  13.5283
    13.7958  13.9196  14.0425  14.2159  14.3287  14.3854  14.5444  14.7095
    14.7953  14.8164  14.8643  14.9477  15.0599  15.0667  15.1533  15.2603
    15.3561  15.4647  15.5380  15.6402  15.6940  15.7484  15.7948  15.8492
    15.9350  15.9554  16.0209  16.1231  16.1465  16.1979  16.2791  16.4267
    16.5030  16.6057  16.6910  16.8570  16.9636  17.0833  17.1403  17.1618
    17.2955  17.3294  17.4080  17.5088  17.5821  17.7349  17.8227  17.9220
    18.0032  18.0419  18.0421  18.0964  18.1303  18.2065  18.2290  18.2767
    18.2767  18.3652  18.3778  18.3880  18.4575  18.4575  18.4774  18.5521
    18.5680  18.6924  18.8415  18.9928  19.0411  19.5092  19.6318  19.7050
    19.7243

          k = 0.0000 0.2500-0.5000 (  6452 PWs)   bands (ev):

   -86.7331 -68.9270 -68.9225 -68.9178 -68.8880 -68.8707 -68.8603 -68.8543
   -68.8437 -68.8420 -68.8392 -68.8304 -68.8238 -68.8143 -68.8061 -46.9296
   -46.9236 -46.8570 -35.1567 -35.1477 -35.1414 -35.1359 -35.1329 -35.1284
   -35.1153 -35.1100 -35.0990 -35.0758 -35.0657 -35.0590 -35.0436 -35.0337
   -35.0163 -34.9956 -34.9934 -34.9840 -34.9774 -34.9762 -34.9698 -34.9473
   -34.9302 -34.9301 -34.9230 -34.9146 -34.9102 -34.8965 -34.8891 -34.8767
   -34.8718 -34.8630 -34.8526 -34.8459 -34.8318 -34.8303 -34.8234 -34.8188
   -34.8115 -34.8055 -34.8025 -34.7918   9.5723   9.8445  11.5497  11.8285
    12.8877  12.9455  13.1058  13.2042  13.5140  13.5777  13.6498  13.6917
    13.8537  13.9551  14.0314  14.0950  14.1878  14.3983  14.4551  14.6215
    14.7357  14.8357  14.9123  15.0037  15.0429  15.0810  15.1652  15.2163
    15.2666  15.3426  15.3861  15.4786  15.5052  15.6148  15.6312  15.6749
    15.7064  15.7795  15.8366  15.9145  15.9970  16.0694  16.1547  16.4252
    16.4971  16.5418  16.8624  16.9175  17.0285  17.1345  17.2030  17.3357
    17.4046  17.4312  17.4860  17.5538  17.5707  17.5997  17.7113  17.8127
    17.8789  17.9607  18.0159  18.0671  18.1217  18.2243  18.2574  18.2785
    18.3189  18.3454  18.3801  18.4040  18.4153  18.4351  18.4765  18.5353
    18.6435  18.7283  18.8552  19.2517  19.3232  19.3542  19.4084  20.1824
    20.4234

          k = 0.0000-0.5000-0.5000 (  6496 PWs)   bands (ev):

   -86.7332 -68.9232 -68.9228 -68.9203 -68.8885 -68.8672 -68.8643 -68.8596
   -68.8434 -68.8419 -68.8372 -68.8289 -68.8190 -68.8146 -68.8094 -46.9409
   -46.9330 -46.8672 -35.1621 -35.1446 -35.1419 -35.1407 -35.1396 -35.1310
   -35.1144 -35.1117 -35.0935 -35.0646 -35.0519 -35.0491 -35.0153 -35.0130
   -35.0100 -35.0012 -34.9982 -34.9971 -34.9905 -34.9855 -34.9748 -34.9613
   -34.9611 -34.9506 -34.9441 -34.9374 -34.9212 -34.9032 -34.8883 -34.8810
   -34.8695 -34.8655 -34.8565 -34.8407 -34.8333 -34.8268 -34.8218 -34.8181
   -34.8082 -34.7967 -34.7943 -34.7853  10.2966  10.4370  10.4410  10.9483
    13.3022  13.3115  13.3442  13.4813  13.5449  13.6281  13.6417  13.7714
    13.9696  13.9877  14.0485  14.0621  14.4006  14.4059  14.5221  14.5411
    14.6722  14.7147  14.7164  14.7842  14.8737  14.9789  15.0386  15.0403
    15.2596  15.2658  15.3406  15.3710  15.4111  15.4551  15.5103  15.5324
    15.6706  15.7036  15.7500  15.8983  16.0179  16.1116  16.1928  16.4317
    16.4696  16.6083  16.6172  16.9285  16.9319  16.9834  17.1452  17.2312
    17.2537  17.3897  17.4932  17.5881  17.6464  17.6873  17.7167  17.7790
    17.8236  17.8695  17.9380  17.9401  18.0602  18.1018  18.1613  18.2331
    18.2536  18.2816  18.2843  18.3156  18.3496  18.4196  18.4572  18.5807
    18.7363  18.8020  18.9897  19.8210  19.8895  20.0050  20.0918  20.1528
    20.2728

          k = 0.2500 0.2500 0.2500 (  6493 PWs)   bands (ev):

   -86.7332 -68.9283 -68.9196 -68.9196 -68.8882 -68.8668 -68.8603 -68.8603
   -68.8415 -68.8415 -68.8404 -68.8249 -68.8226 -68.8226 -68.8037 -46.9363
   -46.9363 -46.8666 -35.1743 -35.1379 -35.1379 -35.1292 -35.1292 -35.1225
   -35.1200 -35.1200 -35.1181 -35.0588 -35.0588 -35.0469 -35.0469 -35.0414
   -35.0278 -35.0088 -34.9935 -34.9935 -34.9781 -34.9745 -34.9745 -34.9374
   -34.9374 -34.9234 -34.9141 -34.9141 -34.9094 -34.9094 -34.9061 -34.8930
   -34.8774 -34.8544 -34.8544 -34.8522 -34.8310 -34.8260 -34.8260 -34.8190
   -34.8190 -34.8019 -34.8019 -34.7909   9.1206  11.2206  11.2206  11.4034
    12.6249  12.6249  12.7943  13.4278  13.4278  13.5903  13.6927  13.6927
    14.0087  14.0664  14.0664  14.1058  14.4025  14.4200  14.4200  14.7656
    14.7676  14.7676  14.8412  14.8412  15.0604  15.0680  15.0712  15.0712
    15.4034  15.4034  15.4315  15.4677  15.4677  15.6589  15.6990  15.6990
    15.7321  15.7615  15.7615  15.9826  15.9826  16.1625  16.1625  16.2865
    16.5173  16.6213  16.6213  17.0001  17.1483  17.1483  17.2338  17.2585
    17.2585  17.4053  17.5107  17.5107  17.5829  17.7414  17.7896  17.7896
    17.9307  18.0283  18.0283  18.1196  18.1905  18.1905  18.2514  18.2514
    18.3173  18.3173  18.3438  18.4013  18.4013  18.5006  18.5006  18.5638
    18.5695  18.5695  18.6556  18.9882  18.9882  19.0132  20.2373  20.2373
    20.3738

          k = 0.2500 0.2500-0.5000 (  6456 PWs)   bands (ev):

   -86.7331 -68.9252 -68.9217 -68.9193 -68.8887 -68.8690 -68.8611 -68.8600
   -68.8427 -68.8410 -68.8396 -68.8273 -68.8226 -68.8146 -68.8074 -46.9310
   -46.9254 -46.8570 -35.1520 -35.1465 -35.1453 -35.1288 -35.1240 -35.1190
   -35.1043 -35.1026 -35.0887 -35.0796 -35.0660 -35.0503 -35.0470 -35.0317
   -35.0268 -35.0173 -35.0058 -35.0009 -34.9837 -34.9807 -34.9800 -34.9415
   -34.9388 -34.9344 -34.9218 -34.9081 -34.9005 -34.8963 -34.8875 -34.8753
   -34.8735 -34.8583 -34.8549 -34.8523 -34.8325 -34.8255 -34.8233 -34.8181
   -34.8070 -34.8064 -34.8009 -34.7947   9.8558  10.1141  11.7992  11.8033
    11.9460  12.2134  13.2008  13.5190  13.6349  13.7083  13.7918  13.8193
    13.9663  14.0782  14.1823  14.2254  14.3083  14.4160  14.5801  14.6186
    14.6626  14.8662  14.8941  14.9311  14.9497  14.9907  15.0819  15.1250
    15.1757  15.2158  15.3473  15.4035  15.4233  15.4788  15.5526  15.5775
    15.6050  15.7035  15.7553  15.8143  15.8441  15.9127  15.9822  16.2677
    16.4272  16.5290  16.7452  16.8634  17.0387  17.1561  17.2965  17.3774
    17.4370  17.5162  17.5538  17.5719  17.7039  17.7154  17.8556  17.8616
    17.9848  17.9952  18.0988  18.1496  18.1807  18.2110  18.2206  18.2601
    18.2759  18.3240  18.3300  18.3536  18.3901  18.4538  18.4766  18.5260
    18.5378  18.5764  18.6182  18.6367  18.7055  19.8272  19.9844  20.7684
    20.8199

          k = 0.2500-0.5000-0.5000 (  6472 PWs)   bands (ev):

   -86.7331 -68.9225 -68.9223 -68.9199 -68.8893 -68.8679 -68.8665 -68.8582
   -68.8446 -68.8401 -68.8380 -68.8294 -68.8170 -68.8149 -68.8098 -46.9314
   -46.9307 -46.8619 -35.1464 -35.1321 -35.1305 -35.1233 -35.1221 -35.1170
   -35.1062 -35.0967 -35.0885 -35.0683 -35.0500 -35.0474 -35.0461 -35.0409
   -35.0371 -35.0307 -35.0291 -35.0216 -35.0073 -34.9891 -34.9846 -34.9399
   -34.9352 -34.9297 -34.9108 -34.9047 -34.9010 -34.8921 -34.8842 -34.8827
   -34.8697 -34.8618 -34.8538 -34.8461 -34.8323 -34.8322 -34.8258 -34.8199
   -34.8125 -34.8077 -34.8040 -34.7964  10.5670  10.7129  10.7153  11.1702
    12.3886  12.5309  12.5417  13.0873  13.8088  13.9358  14.0444  14.0839
    14.1059  14.2141  14.2693  14.3725  14.4861  14.4957  14.5666  14.5929
    14.7086  14.7120  14.8037  14.8340  14.8627  14.9724  14.9941  15.0778
    15.1332  15.2011  15.2430  15.3026  15.3391  15.4041  15.4521  15.4766
    15.5155  15.5968  15.6306  15.7211  15.7284  15.8135  15.9016  15.9430
    16.0607  16.6067  16.6261  16.7819  17.1414  17.2012  17.4015  17.4346
    17.5721  17.6642  17.6871  17.7246  17.7744  17.8696  17.8779  17.8977
    17.9058  17.9864  18.0188  18.0322  18.0816  18.1724  18.1767  18.2165
    18.2197  18.2540  18.2943  18.2954  18.3144  18.3677  18.3855  18.4491
    18.5174  18.5669  18.6638  19.0957  19.1489  19.1714  19.2200  21.6747
    21.8372

          k =-0.5000-0.5000-0.5000 (  6488 PWs)   bands (ev):

   -86.7331 -68.9219 -68.9219 -68.9194 -68.8902 -68.8686 -68.8686 -68.8562
   -68.8465 -68.8385 -68.8385 -68.8295 -68.8151 -68.8151 -68.8104 -46.9331
   -46.9331 -46.8639 -35.1064 -35.1064 -35.1034 -35.1034 -35.1019 -35.0944
   -35.0912 -35.0912 -35.0789 -35.0782 -35.0782 -35.0759 -35.0738 -35.0738
   -35.0653 -35.0562 -35.0409 -35.0409 -35.0212 -34.9879 -34.9879 -34.9320
   -34.9320 -34.9286 -34.8816 -34.8816 -34.8793 -34.8745 -34.8745 -34.8729
   -34.8655 -34.8619 -34.8619 -34.8496 -34.8406 -34.8373 -34.8373 -34.8250
   -34.8250 -34.8195 -34.8195 -34.8084  11.1908  11.4276  11.4276  11.4530
    11.5205  11.5549  11.5549  12.5405  13.9948  13.9948  14.1779  14.1779
    14.2727  14.5870  14.5870  14.6001  14.6341  14.7028  14.7028  14.7168
    14.7168  14.8341  14.8466  14.8478  14.8478  15.0083  15.0565  15.0565
    15.0771  15.0771  15.2584  15.2878  15.2878  15.3239  15.3431  15.3431
    15.3590  15.3737  15.4376  15.4376  15.4381  15.5461  15.5461  15.6360
    15.6360  16.6401  16.6401  16.6697  17.2991  17.2991  17.4935  17.4935
    17.7179  17.9221  17.9409  17.9409  17.9755  17.9755  18.0085  18.0085
    18.0693  18.1282  18.1282  18.1469  18.1469  18.1643  18.1932  18.2120
    18.2594  18.2594  18.2805  18.2805  18.3114  18.3506  18.3506  18.3878
    18.3929  18.3929  18.4141  18.5396  18.5396  18.5567  18.8178  23.4715
    23.4715

          k =-0.2500 0.0000 0.2500 (  6500 PWs)   bands (ev):

   -86.7332 -68.9316 -68.9187 -68.9179 -68.8876 -68.8714 -68.8555 -68.8534
   -68.8437 -68.8419 -68.8404 -68.8301 -68.8281 -68.8188 -68.8013 -46.9404
   -46.9371 -46.8660 -35.1807 -35.1743 -35.1710 -35.1441 -35.1238 -35.1227
   -35.1062 -35.1027 -35.0841 -35.0652 -35.0558 -35.0531 -35.0360 -35.0180
   -35.0084 -35.0035 -34.9894 -34.9848 -34.9775 -34.9712 -34.9682 -34.9599
   -34.9594 -34.9323 -34.9223 -34.9197 -34.9121 -34.9027 -34.8921 -34.8905
   -34.8808 -34.8652 -34.8583 -34.8518 -34.8430 -34.8318 -34.8266 -34.8190
   -34.8054 -34.8010 -34.7990 -34.7858   8.8261  10.8934  11.1865  12.4129
    12.6422  12.6669  13.0904  13.1855  13.2211  13.3275  13.3853  13.4818
    13.7914  13.9401  13.9813  14.1851  14.3142  14.4577  14.5167  14.7491
    14.7707  14.8232  14.8819  14.9032  15.0242  15.1327  15.1775  15.3507
    15.3949  15.4585  15.5202  15.5943  15.6781  15.7493  15.7856  15.8439
    15.9161  15.9828  16.0378  16.0483  16.0857  16.2108  16.3582  16.4493
    16.5260  16.5635  16.7029  16.8632  16.8827  17.0195  17.1292  17.2022
    17.2675  17.3071  17.4011  17.6253  17.6978  17.7174  17.8495  17.8858
    17.9581  17.9682  18.0597  18.1015  18.1574  18.2294  18.2415  18.2770
    18.2845  18.3213  18.3490  18.3843  18.4515  18.4707  18.5079  18.5246
    18.5575  18.5834  18.9876  19.0080  19.0616  19.4136  19.5169  19.7114
    19.8570

          k = 0.2500-0.2500 0.2500 (  6493 PWs)   bands (ev):

   -86.7332 -68.9294 -68.9196 -68.9181 -68.8881 -68.8711 -68.8603 -68.8526
   -68.8452 -68.8415 -68.8388 -68.8312 -68.8227 -68.8183 -68.8036 -46.9363
   -46.9359 -46.8671 -35.1666 -35.1601 -35.1582 -35.1319 -35.1245 -35.1216
   -35.1160 -35.1044 -35.0771 -35.0631 -35.0584 -35.0524 -35.0438 -35.0394
   -35.0237 -35.0197 -35.0101 -34.9946 -34.9877 -34.9787 -34.9753 -34.9345
   -34.9330 -34.9218 -34.9200 -34.9179 -34.9062 -34.9015 -34.8945 -34.8880
   -34.8811 -34.8642 -34.8560 -34.8552 -34.8380 -34.8237 -34.8229 -34.8179
   -34.8120 -34.8009 -34.7995 -34.7947   9.1238  11.1172  11.2214  11.5198
    12.5751  12.6103  12.8463  13.4803  13.5414  13.5874  13.6409  13.6602
    13.9144  13.9811  14.0878  14.1677  14.2822  14.3733  14.4950  14.6556
    14.7985  14.8296  14.8772  14.9177  14.9758  15.0677  15.1657  15.2805
    15.3063  15.3828  15.4016  15.4743  15.5437  15.6356  15.6540  15.6806
    15.7614  15.7767  15.8324  15.8741  15.9933  16.0526  16.1808  16.2954
    16.5276  16.5700  16.7274  16.8775  16.9180  17.1052  17.1293  17.3607
    17.3801  17.4480  17.4600  17.6271  17.6838  17.7639  17.8519  17.9192
    17.9282  17.9630  18.0272  18.1011  18.1253  18.2237  18.2596  18.2707
    18.2903  18.3320  18.3374  18.3676  18.4487  18.4794  18.5003  18.5228
    18.5379  18.5961  18.6291  18.9662  18.9688  19.0282  20.2038  20.2578
    20.4273

          k = 0.2500-0.2500-0.5000 (  6456 PWs)   bands (ev):

   -86.7331 -68.9257 -68.9223 -68.9180 -68.8886 -68.8707 -68.8638 -68.8528
   -68.8463 -68.8408 -68.8379 -68.8317 -68.8196 -68.8146 -68.8076 -46.9272
   -46.9267 -46.8595 -35.1494 -35.1434 -35.1403 -35.1357 -35.1244 -35.1180
   -35.1047 -35.0910 -35.0860 -35.0793 -35.0713 -35.0580 -35.0548 -35.0432
   -35.0263 -35.0142 -35.0082 -34.9967 -34.9913 -34.9856 -34.9800 -34.9419
   -34.9338 -34.9247 -34.9169 -34.9005 -34.8987 -34.8896 -34.8840 -34.8786
   -34.8723 -34.8626 -34.8559 -34.8466 -34.8422 -34.8295 -34.8228 -34.8155
   -34.8118 -34.8084 -34.7988 -34.7956   9.8565  10.1165  11.7157  11.8753
    11.9097  12.2677  13.1898  13.5017  13.6629  13.8011  13.8380  13.8699
    13.9191  13.9772  14.1495  14.1924  14.2902  14.3941  14.5208  14.5817
    14.7372  14.8492  14.9032  14.9474  14.9752  15.0248  15.1169  15.1396
    15.1829  15.2376  15.3549  15.3992  15.4465  15.4769  15.5570  15.5821
    15.6012  15.6920  15.7204  15.7513  15.8032  15.8910  15.9709  16.3584
    16.4476  16.5982  16.6693  16.8579  16.9941  17.0357  17.3197  17.3467
    17.4167  17.5244  17.5838  17.6620  17.7327  17.7912  17.8334  17.8731
    17.9531  18.0038  18.0637  18.1059  18.1705  18.1918  18.2580  18.2833
    18.3263  18.3417  18.3590  18.3799  18.3989  18.4484  18.4738  18.5269
    18.5417  18.5775  18.6136  18.6284  18.6597  19.7953  19.9663  20.7470
    20.8441

     the Fermi energy is    16.2438 ev

!    total energy              =   -3807.99363084 Ry
     estimated scf accuracy    <          6.4E-09 Ry
     smearing contrib. (-TS)   =       0.01603699 Ry
     internal energy E=F+TS    =   -3808.00966783 Ry

     The total energy is F=E-TS. E is the sum of the following terms:
     one-electron contribution =   -1953.83660870 Ry
     hartree contribution      =    1103.07484263 Ry
     xc contribution           =    -422.84186473 Ry
     ewald contribution        =   -2534.40603703 Ry

     total magnetization       =    36.62 Bohr mag/cell
     absolute magnetization    =    39.11 Bohr mag/cell

     convergence has been achieved in  16 iterations

     negative rho (up, down):  0.000E+00 3.024E-03

     Forces acting on atoms (cartesian axes, Ry/au):

     atom    1 type  2   force =     0.00009782    0.00009782    0.00009782
     atom    2 type  1   force =    -0.00106411   -0.00054275   -0.00054275
     atom    3 type  1   force =    -0.00054275   -0.00106411   -0.00054275
     atom    4 type  1   force =     0.00005176    0.00005176   -0.00067121
     atom    5 type  1   force =    -0.00054275   -0.00054275   -0.00106411
     atom    6 type  1   force =     0.00005176   -0.00067121    0.00005176
     atom    7 type  1   force =    -0.00067121    0.00005176    0.00005176
     atom    8 type  1   force =    -0.00072066   -0.00072066   -0.00072066
     atom    9 type  1   force =     0.00025924    0.00068235    0.00068235
     atom   10 type  1   force =     0.00068235    0.00025924    0.00068235
     atom   11 type  1   force =     0.00058273    0.00058273   -0.00052229
     atom   12 type  1   force =     0.00068235    0.00068235    0.00025924
     atom   13 type  1   force =     0.00058273   -0.00052229    0.00058273
     atom   14 type  1   force =    -0.00052229    0.00058273    0.00058273
     atom   15 type  1   force =     0.00107302    0.00107302    0.00107302

     Total force =     0.004174     Total SCF correction =     0.000128
     Energy error            =      2.0E-05 Ry
     Gradient error          =      1.1E-03 Ry/Bohr

     number of scf cycles    =  14
     number of bfgs steps    =  13

     energy             old  =   -3807.9936105820 Ry
     energy             new  =   -3807.9936308383 Ry

     CASE: energy            _new < energy            _old


     WARNING: bfgs curvature condition failed, Theta= 0.935
     new trust radius        =       0.0024878372 bohr
     new conv_thr            =       0.0000000100 Ry


ATOMIC_POSITIONS (crystal)
Ni               0.0007413165        0.0007413165        0.0007413165
Fe               0.4887068962        0.0114791797        0.0114791797
Fe               0.0114791797        0.4887068962        0.0114791797
Fe               0.4965667524        0.4965667524        0.0060772615
Fe               0.0114791797        0.0114791797        0.4887068962
Fe               0.4965667524        0.0060772615        0.4965667524
Fe               0.0060772615        0.4965667524        0.4965667524
Fe               0.4874076153        0.4874076153        0.4874076153
Fe               0.7539039560        0.2484380307        0.2484380307
Fe               0.2484380307        0.7539039560        0.2484380307
Fe               0.7482406785        0.7482406785        0.2517949607
Fe               0.2484380307        0.2484380307        0.7539039560
Fe               0.7482406785        0.2517949607        0.7482406785
Fe               0.2517949607        0.7482406785        0.7482406785
Fe               0.7519187112        0.7519187112        0.7519187112



     Writing config-only to output data dir ./outdir/fe15_ni1_end.save/ :
     XML data file
     NEW-OLD atomic charge density approx. for the potential

     Check: negative core charge=   -0.000004

     negative rho (up, down):  0.000E+00 3.063E-03
     Generating pointlists ...

     total cpu time spent up to now is     7939.9 secs

     per-process dynamical memory:   179.3 Mb

     Self-consistent Calculation

     iteration #  1     ecut=    45.00 Ry     beta= 0.10
     Davidson diagonalization with overlap
     ethr =  1.00E-06,  avg # of iterations =  5.0

     Threshold (ethr) on eigenvalues was too large:
     Diagonalizing with lowered threshold

     Davidson diagonalization with overlap
     ethr =  3.80E-08,  avg # of iterations =  3.2

     negative rho (up, down):  0.000E+00 3.062E-03

     total cpu time spent up to now is     8001.3 secs

     total energy              =   -3807.99365374 Ry
     estimated scf accuracy    <       0.00008456 Ry

     total magnetization       =    36.62 Bohr mag/cell
     absolute magnetization    =    39.11 Bohr mag/cell

     iteration #  2     ecut=    45.00 Ry     beta= 0.10
     Davidson diagonalization with overlap
     ethr =  3.49E-08,  avg # of iterations =  2.1

     negative rho (up, down):  0.000E+00 3.062E-03

     total cpu time spent up to now is     8024.4 secs

     total energy              =   -3807.99362765 Ry
     estimated scf accuracy    <       0.00109218 Ry

     total magnetization       =    36.62 Bohr mag/cell
     absolute magnetization    =    39.11 Bohr mag/cell

     iteration #  3     ecut=    45.00 Ry     beta= 0.10
     Davidson diagonalization with overlap
     ethr =  3.49E-08,  avg # of iterations =  2.0

     negative rho (up, down):  0.000E+00 3.062E-03

     total cpu time spent up to now is     8047.7 secs

     total energy              =   -3807.99364058 Ry
     estimated scf accuracy    <       0.00002687 Ry

     total magnetization       =    36.62 Bohr mag/cell
     absolute magnetization    =    39.11 Bohr mag/cell

     iteration #  4     ecut=    45.00 Ry     beta= 0.10
     Davidson diagonalization with overlap
     ethr =  1.11E-08,  avg # of iterations =  1.6

     negative rho (up, down):  0.000E+00 3.057E-03

     total cpu time spent up to now is     8068.5 secs

     total energy              =   -3807.99364413 Ry
     estimated scf accuracy    <       0.00000460 Ry

     total magnetization       =    36.62 Bohr mag/cell
     absolute magnetization    =    39.11 Bohr mag/cell

     iteration #  5     ecut=    45.00 Ry     beta= 0.10
     Davidson diagonalization with overlap
     ethr =  1.90E-09,  avg # of iterations =  2.3

     negative rho (up, down):  0.000E+00 3.052E-03

     total cpu time spent up to now is     8090.9 secs

     total energy              =   -3807.99364406 Ry
     estimated scf accuracy    <       0.00000358 Ry

     total magnetization       =    36.62 Bohr mag/cell
     absolute magnetization    =    39.11 Bohr mag/cell

     iteration #  6     ecut=    45.00 Ry     beta= 0.10
     Davidson diagonalization with overlap
     ethr =  1.48E-09,  avg # of iterations =  2.1

     negative rho (up, down):  0.000E+00 3.052E-03

     total cpu time spent up to now is     8115.1 secs

     total energy              =   -3807.99364718 Ry
     estimated scf accuracy    <       0.00002225 Ry

     total magnetization       =    36.62 Bohr mag/cell
     absolute magnetization    =    39.11 Bohr mag/cell

     iteration #  7     ecut=    45.00 Ry     beta= 0.10
     Davidson diagonalization with overlap
     ethr =  1.48E-09,  avg # of iterations =  2.0

     negative rho (up, down):  0.000E+00 3.053E-03

     total cpu time spent up to now is     8138.3 secs

     total energy              =   -3807.99364839 Ry
     estimated scf accuracy    <       0.00000007 Ry

     total magnetization       =    36.62 Bohr mag/cell
     absolute magnetization    =    39.11 Bohr mag/cell

     iteration #  8     ecut=    45.00 Ry     beta= 0.10
     Davidson diagonalization with overlap
     ethr =  2.72E-11,  avg # of iterations =  4.0

     negative rho (up, down):  0.000E+00 3.053E-03

     total cpu time spent up to now is     8164.0 secs

     total energy              =   -3807.99364907 Ry
     estimated scf accuracy    <       0.00000004 Ry

     total magnetization       =    36.62 Bohr mag/cell
     absolute magnetization    =    39.11 Bohr mag/cell

     iteration #  9     ecut=    45.00 Ry     beta= 0.10
     Davidson diagonalization with overlap
     ethr =  1.70E-11,  avg # of iterations =  2.2

     negative rho (up, down):  0.000E+00 3.054E-03

     total cpu time spent up to now is     8188.5 secs

     total energy              =   -3807.99364983 Ry
     estimated scf accuracy    <       0.00000070 Ry

     total magnetization       =    36.62 Bohr mag/cell
     absolute magnetization    =    39.11 Bohr mag/cell

     iteration # 10     ecut=    45.00 Ry     beta= 0.10
     Davidson diagonalization with overlap
     ethr =  1.70E-11,  avg # of iterations =  2.8

     negative rho (up, down):  0.000E+00 3.054E-03

     total cpu time spent up to now is     8213.9 secs

     total energy              =   -3807.99365013 Ry
     estimated scf accuracy    <       0.00000007 Ry

     total magnetization       =    36.62 Bohr mag/cell
     absolute magnetization    =    39.11 Bohr mag/cell

     iteration # 11     ecut=    45.00 Ry     beta= 0.10
     Davidson diagonalization with overlap
     ethr =  1.70E-11,  avg # of iterations =  3.1

     negative rho (up, down):  0.000E+00 3.055E-03

     total cpu time spent up to now is     8239.7 secs

     total energy              =   -3807.99365069 Ry
     estimated scf accuracy    <       0.00000168 Ry

     total magnetization       =    36.62 Bohr mag/cell
     absolute magnetization    =    39.11 Bohr mag/cell

     iteration # 12     ecut=    45.00 Ry     beta= 0.10
     Davidson diagonalization with overlap
     ethr =  1.70E-11,  avg # of iterations =  1.7

     negative rho (up, down):  0.000E+00 3.056E-03

     total cpu time spent up to now is     8261.1 secs

     total energy              =   -3807.99365101 Ry
     estimated scf accuracy    <       0.00000118 Ry

     total magnetization       =    36.62 Bohr mag/cell
     absolute magnetization    =    39.11 Bohr mag/cell

     iteration # 13     ecut=    45.00 Ry     beta= 0.10
     Davidson diagonalization with overlap
     ethr =  1.70E-11,  avg # of iterations =  3.3

     negative rho (up, down):  0.000E+00 3.056E-03

     total cpu time spent up to now is     8288.0 secs

     total energy              =   -3807.99365110 Ry
     estimated scf accuracy    <       0.00000065 Ry

     total magnetization       =    36.62 Bohr mag/cell
     absolute magnetization    =    39.11 Bohr mag/cell

     iteration # 14     ecut=    45.00 Ry     beta= 0.10
     Davidson diagonalization with overlap
     ethr =  1.70E-11,  avg # of iterations =  2.2

     negative rho (up, down):  0.000E+00 3.056E-03

     Magnetic moment per site  (integrated on atomic sphere of radius R)
     atom   1 (R=0.176)  charge= 16.5660  magn=  0.9603
     atom   2 (R=0.176)  charge= 14.2918  magn=  2.6209
     atom   3 (R=0.176)  charge= 14.2918  magn=  2.6209
     atom   4 (R=0.176)  charge= 14.2961  magn=  2.6412
     atom   5 (R=0.176)  charge= 14.2918  magn=  2.6209
     atom   6 (R=0.176)  charge= 14.2961  magn=  2.6412
     atom   7 (R=0.176)  charge= 14.2961  magn=  2.6412
     atom   8 (R=0.176)  charge= 14.2801  magn=  2.7000
     atom   9 (R=0.176)  charge= 14.3640  magn=  2.4391
     atom  10 (R=0.176)  charge= 14.3640  magn=  2.4391
     atom  11 (R=0.176)  charge= 14.2955  magn=  2.6633
     atom  12 (R=0.176)  charge= 14.3640  magn=  2.4391
     atom  13 (R=0.176)  charge= 14.2955  magn=  2.6633
     atom  14 (R=0.176)  charge= 14.2955  magn=  2.6633
     atom  15 (R=0.176)  charge= 14.2488  magn=  2.7925

     total cpu time spent up to now is     8312.2 secs

     End of self-consistent calculation

 ------ SPIN UP ------------


          k = 0.0000 0.0000 0.0000 (  6451 PWs)   bands (ev):

   -88.0755 -72.3872 -72.2653 -72.2561 -72.2561 -72.2088 -72.1574 -72.1574
   -72.1547 -72.1239 -72.1235 -72.1235 -71.9040 -71.9040 -71.8983 -48.2768
   -48.2768 -48.1710 -38.4893 -38.3989 -38.3989 -38.3506 -38.3456 -38.3456
   -38.3219 -38.2906 -38.2896 -38.2896 -38.2654 -38.2537 -38.2473 -38.2473
   -38.2304 -38.2304 -38.2080 -38.1792 -38.1792 -38.1520 -38.1520 -38.1176
   -38.1176 -38.0932 -38.0929 -38.0832 -38.0832 -38.0774 -38.0731 -38.0731
   -38.0607 -38.0607 -38.0577 -37.9682 -37.9163 -37.9163 -37.8610 -37.8610
   -37.8030 -37.8018 -37.8007 -37.8007   8.0827  11.4031  11.4228  11.4228
    11.4646  11.5105  11.5105  11.5496  11.5496  11.6709  11.7498  11.7498
    12.0840  12.0840  12.4163  12.7165  12.7246  12.7246  12.8150  12.8150
    12.8368  12.9584  12.9584  12.9890  13.1676  13.1676  13.2202  13.2406
    13.4351  13.4351  13.4682  13.5993  13.5993  13.7896  13.8023  13.8023
    14.0494  14.0494  14.0684  14.1130  14.1229  14.1229  14.1959  14.1959
    14.2759  14.5421  14.5702  14.5702  14.7308  14.8254  14.8254  14.8539
    14.8539  14.9509  14.9990  15.0052  15.0052  15.0736  15.0736  15.1319
    15.1319  15.1998  15.1998  15.2123  15.2123  15.2249  15.2443  15.4531
    15.5793  15.5793  15.9889  15.9889  16.0427  16.0427  16.1369  16.1369
    16.1430  16.1836  16.2850  16.2850  16.3535  16.5638  16.6324  16.6324
    16.6698

          k = 0.0000 0.0000 0.2500 (  6495 PWs)   bands (ev):

   -88.0756 -72.3872 -72.2643 -72.2573 -72.2563 -72.2089 -72.1575 -72.1575
   -72.1547 -72.1243 -72.1237 -72.1233 -71.9042 -71.9034 -71.8990 -48.2898
   -48.2855 -48.1817 -38.4905 -38.3995 -38.3974 -38.3555 -38.3469 -38.3468
   -38.3208 -38.2978 -38.2879 -38.2838 -38.2708 -38.2576 -38.2523 -38.2406
   -38.2309 -38.2305 -38.2114 -38.1910 -38.1890 -38.1640 -38.1489 -38.1404
   -38.1218 -38.1088 -38.0920 -38.0872 -38.0791 -38.0701 -38.0652 -38.0650
   -38.0576 -38.0489 -38.0443 -37.9649 -37.9262 -37.9220 -37.8583 -37.8558
   -37.8133 -37.8131 -37.8086 -37.8075   8.3827  10.5371  11.5069  11.5081
    11.5414  11.5827  11.5997  11.6300  11.6968  11.7775  11.8271  11.8681
    12.1374  12.1776  12.4393  12.6355  12.6722  12.6818  12.7444  12.7713
    12.8670  12.8840  12.9328  13.1007  13.1059  13.1566  13.2112  13.2465
    13.3304  13.5706  13.5732  13.5992  13.7246  13.7378  13.7647  13.7876
    13.8200  13.8542  13.9043  14.0819  14.0865  14.2795  14.3107  14.3585
    14.3721  14.4680  14.5365  14.5831  14.6075  14.6076  14.6339  14.7124
    14.7825  14.8631  14.9324  14.9573  15.0101  15.0176  15.0770  15.1023
    15.1076  15.1347  15.1583  15.1601  15.1819  15.1914  15.2350  15.3026
    15.3208  15.4634  15.5260  15.5306  15.6002  15.8998  16.0513  16.0771
    16.1071  16.1612  16.2781  16.2844  16.4391  16.6477  16.7909  16.8644
    17.0160

          k = 0.0000 0.0000-0.5000 (  6480 PWs)   bands (ev):

   -88.0756 -72.3872 -72.2628 -72.2589 -72.2563 -72.2089 -72.1575 -72.1574
   -72.1548 -72.1245 -72.1237 -72.1231 -71.9042 -71.9021 -71.9001 -48.2898
   -48.2808 -48.1789 -38.4884 -38.3947 -38.3881 -38.3581 -38.3444 -38.3405
   -38.3005 -38.2972 -38.2963 -38.2907 -38.2771 -38.2494 -38.2493 -38.2455
   -38.2359 -38.2263 -38.2177 -38.1972 -38.1948 -38.1815 -38.1507 -38.1476
   -38.1358 -38.1072 -38.0895 -38.0881 -38.0762 -38.0701 -38.0623 -38.0591
   -38.0548 -38.0363 -38.0286 -37.9581 -37.9329 -37.9220 -37.8519 -37.8433
   -37.8245 -37.8206 -37.8099 -37.8077   9.1387   9.4051  11.6241  11.6433
    11.6502  11.7092  11.7694  11.7933  11.8428  11.8795  11.9440  12.0639
    12.0708  12.2032  12.3263  12.3565  12.3954  12.6186  12.6302  12.6396
    12.9687  12.9766  13.2124  13.2308  13.2833  13.2868  13.2893  13.4171
    13.4477  13.4923  13.5635  13.5911  13.6109  13.6392  13.6541  13.6852
    13.7559  13.7818  13.8339  13.9400  13.9585  14.1263  14.1814  14.2021
    14.2512  14.3036  14.3832  14.4677  14.5061  14.5350  14.6171  14.6429
    14.6907  14.7571  14.7793  14.9045  15.0173  15.0553  15.0719  15.0797
    15.0954  15.1043  15.1577  15.1714  15.1748  15.2035  15.2205  15.2518
    15.4011  15.5202  15.6491  15.6618  15.6814  15.7343  15.7646  15.8228
    15.9167  16.2466  16.4307  16.4663  16.5455  16.6053  16.6676  16.7212
    16.7391

          k = 0.0000 0.2500 0.2500 (  6500 PWs)   bands (ev):

   -88.0756 -72.3872 -72.2633 -72.2578 -72.2568 -72.2090 -72.1577 -72.1570
   -72.1551 -72.1243 -72.1238 -72.1232 -71.9038 -71.9030 -71.8997 -48.2905
   -48.2847 -48.1853 -38.4898 -38.3957 -38.3926 -38.3579 -38.3443 -38.3425
   -38.3156 -38.3010 -38.2882 -38.2865 -38.2794 -38.2579 -38.2564 -38.2339
   -38.2330 -38.2310 -38.2048 -38.2048 -38.1867 -38.1628 -38.1514 -38.1391
   -38.1241 -38.1211 -38.1027 -38.0937 -38.0780 -38.0682 -38.0669 -38.0553
   -38.0507 -38.0489 -38.0453 -37.9582 -37.9272 -37.9242 -37.8515 -37.8464
   -37.8222 -37.8134 -37.8118 -37.8075   8.6822  10.6530  10.8034  11.4229
    11.6845  11.6921  11.7187  11.7404  11.8182  11.9188  11.9563  12.0037
    12.2444  12.2488  12.4927  12.5522  12.6049  12.7004  12.7825  12.8146
    12.8669  12.9172  12.9631  12.9656  13.0283  13.0406  13.2193  13.2715
    13.3956  13.4168  13.5117  13.5769  13.5925  13.6863  13.7093  13.7967
    13.8042  13.9100  13.9268  14.0445  14.1108  14.2117  14.2488  14.2920
    14.3264  14.3292  14.4046  14.4347  14.5283  14.5635  14.6318  14.6398
    14.6928  14.7400  14.7887  14.8198  14.8914  14.9548  15.0132  15.0296
    15.0670  15.0859  15.1113  15.1662  15.1964  15.2181  15.2677  15.3486
    15.3549  15.3971  15.4061  15.4809  15.5209  15.5236  15.5739  15.7269
    15.8039  15.8155  16.0772  16.5288  16.5516  17.6008  17.6499  17.8441
    17.9961

          k = 0.0000 0.2500-0.5000 (  6452 PWs)   bands (ev):

   -88.0755 -72.3871 -72.2620 -72.2588 -72.2569 -72.2089 -72.1577 -72.1568
   -72.1550 -72.1245 -72.1238 -72.1229 -71.9035 -71.9021 -71.9007 -48.2806
   -48.2744 -48.1714 -38.4859 -38.3893 -38.3843 -38.3587 -38.3418 -38.3400
   -38.3055 -38.2988 -38.2944 -38.2862 -38.2811 -38.2621 -38.2505 -38.2407
   -38.2296 -38.2236 -38.2106 -38.1934 -38.1874 -38.1639 -38.1492 -38.1445
   -38.1242 -38.1099 -38.0931 -38.0876 -38.0767 -38.0739 -38.0659 -38.0624
   -38.0554 -38.0448 -38.0375 -37.9490 -37.9309 -37.9231 -37.8440 -37.8355
   -37.8232 -37.8194 -37.8096 -37.8054   9.4113   9.6581  11.0632  11.2440
    11.8398  11.8754  11.9674  11.9987  12.0237  12.0317  12.0704  12.1592
    12.1838  12.2886  12.3503  12.4247  12.4657  12.6476  12.7349  12.7469
    12.9656  12.9920  13.0641  13.0950  13.1253  13.1379  13.1969  13.2903
    13.3536  13.4079  13.5293  13.5449  13.5653  13.5984  13.6460  13.6660
    13.6851  13.7714  13.7927  13.8401  13.9249  13.9592  14.0146  14.0957
    14.1665  14.3275  14.4371  14.4566  14.4652  14.5179  14.6362  14.6569
    14.6813  14.7199  14.7591  14.7635  14.8132  14.8733  14.9157  14.9923
    15.0442  15.0476  15.1119  15.1510  15.1729  15.2014  15.2265  15.2343
    15.2994  15.3585  15.3785  15.4025  15.4731  15.4757  15.5291  15.6454
    15.7666  15.9560  16.0964  17.0258  17.0657  17.1495  17.2253  18.7265
    18.8122

          k = 0.0000-0.5000-0.5000 (  6496 PWs)   bands (ev):

   -88.0756 -72.3871 -72.2607 -72.2593 -72.2578 -72.2090 -72.1579 -72.1563
   -72.1555 -72.1246 -72.1240 -72.1229 -71.9025 -71.9022 -71.9018 -48.2921
   -48.2841 -48.1818 -38.4855 -38.3874 -38.3791 -38.3634 -38.3412 -38.3399
   -38.3154 -38.2985 -38.2964 -38.2888 -38.2887 -38.2712 -38.2543 -38.2380
   -38.2313 -38.2277 -38.2030 -38.1935 -38.1855 -38.1564 -38.1511 -38.1257
   -38.1185 -38.1009 -38.0996 -38.0953 -38.0902 -38.0874 -38.0819 -38.0758
   -38.0633 -38.0486 -38.0468 -37.9420 -37.9339 -37.9273 -37.8381 -37.8289
   -37.8283 -37.8183 -37.8164 -37.8050  10.0918  10.1600  10.2068  10.6510
    12.0560  12.0782  12.1051  12.1510  12.2179  12.2355  12.2481  12.2988
    12.3539  12.3824  12.5368  12.5807  12.6310  12.6338  12.6713  12.6766
    12.8274  12.8674  12.8684  12.8987  12.9512  12.9988  13.0142  13.2503
    13.3371  13.3745  13.4323  13.4354  13.5082  13.5339  13.5440  13.5558
    13.5991  13.6779  13.7143  13.7476  13.7757  13.7789  13.8685  14.0544
    14.1196  14.3079  14.3168  14.4281  14.4908  14.5684  14.6063  14.6435
    14.6837  14.6860  14.7276  14.7424  14.7861  14.8007  14.8343  14.9093
    14.9286  14.9573  15.0073  15.0319  15.0543  15.0984  15.1373  15.1870
    15.2011  15.2066  15.2258  15.3095  15.3854  15.4305  15.4480  15.6627
    15.7800  16.0465  16.2030  17.8321  17.8811  17.9661  18.0546  18.1369
    18.2932

          k = 0.2500 0.2500 0.2500 (  6493 PWs)   bands (ev):

   -88.0756 -72.3871 -72.2623 -72.2577 -72.2577 -72.2090 -72.1569 -72.1569
   -72.1558 -72.1238 -72.1238 -72.1238 -71.9030 -71.9030 -71.9005 -48.2875
   -48.2875 -48.1812 -38.4878 -38.3892 -38.3892 -38.3598 -38.3397 -38.3397
   -38.3081 -38.3000 -38.2897 -38.2882 -38.2882 -38.2552 -38.2552 -38.2375
   -38.2353 -38.2353 -38.2008 -38.2008 -38.1921 -38.1562 -38.1562 -38.1355
   -38.1355 -38.1170 -38.1087 -38.0811 -38.0811 -38.0708 -38.0708 -38.0669
   -38.0466 -38.0466 -38.0452 -37.9525 -37.9277 -37.9277 -37.8419 -37.8419
   -37.8281 -37.8125 -37.8104 -37.8104   8.9743  10.8722  10.8722  11.0682
    11.6212  11.6212  11.6921  11.9047  11.9047  12.0213  12.1420  12.1420
    12.4016  12.4016  12.5246  12.5563  12.6072  12.7153  12.7153  12.8314
    12.8314  12.9188  12.9640  13.0133  13.0133  13.1234  13.1234  13.2836
    13.3562  13.3562  13.3605  13.4298  13.4298  13.5993  13.5993  13.7210
    13.7210  13.7391  13.8059  13.8996  13.8996  13.9700  14.1625  14.1625
    14.2445  14.2445  14.3483  14.5427  14.5436  14.5436  14.5822  14.6866
    14.6866  14.7863  14.8204  14.8395  14.8395  14.9218  14.9760  14.9760
    15.0474  15.0562  15.0562  15.1720  15.1720  15.2004  15.2004  15.2067
    15.2296  15.3218  15.3218  15.5292  15.5292  15.6127  15.6907  15.6907
    15.7396  15.7396  15.8642  16.5747  16.5747  16.6460  18.5270  18.5270
    18.7145

          k = 0.2500 0.2500-0.5000 (  6456 PWs)   bands (ev):

   -88.0755 -72.3870 -72.2613 -72.2588 -72.2576 -72.2090 -72.1572 -72.1569
   -72.1554 -72.1243 -72.1238 -72.1232 -71.9029 -71.9022 -71.9012 -48.2820
   -48.2763 -48.1712 -38.4845 -38.3852 -38.3812 -38.3598 -38.3392 -38.3385
   -38.2991 -38.2976 -38.2936 -38.2935 -38.2839 -38.2594 -38.2588 -38.2351
   -38.2307 -38.2261 -38.2060 -38.1965 -38.1817 -38.1537 -38.1534 -38.1480
   -38.1217 -38.1149 -38.0992 -38.0976 -38.0924 -38.0790 -38.0653 -38.0558
   -38.0463 -38.0453 -38.0366 -37.9463 -37.9322 -37.9267 -37.8426 -37.8337
   -37.8269 -37.8182 -37.8090 -37.8063   9.6861   9.9158  11.2945  11.3089
    11.3775  11.5784  12.1355  12.1557  12.1894  12.1986  12.2010  12.2185
    12.3019  12.3618  12.4088  12.5228  12.5591  12.6764  12.7479  12.8496
    12.9548  12.9929  13.0004  13.0415  13.0482  13.1141  13.1541  13.1879
    13.2324  13.2754  13.3713  13.4363  13.4482  13.4699  13.5129  13.5317
    13.5596  13.5744  13.5847  13.6201  13.6969  13.7787  13.8179  13.9446
    14.0740  14.2143  14.3467  14.4063  14.5594  14.6079  14.6261  14.6997
    14.7248  14.7295  14.7621  14.8195  14.8475  14.9155  14.9635  15.0320
    15.0448  15.0783  15.1196  15.1303  15.1684  15.1946  15.1964  15.2487
    15.2542  15.3328  15.3758  15.4239  15.4646  15.7058  15.7091  15.7747
    15.8200  15.8457  15.9076  15.9971  16.0503  17.7062  17.8974  19.2285
    19.2459

          k = 0.2500-0.5000-0.5000 (  6472 PWs)   bands (ev):

   -88.0756 -72.3870 -72.2602 -72.2592 -72.2582 -72.2090 -72.1575 -72.1564
   -72.1558 -72.1244 -72.1239 -72.1231 -71.9027 -71.9019 -71.9017 -48.2824
   -48.2817 -48.1762 -38.4832 -38.3800 -38.3754 -38.3615 -38.3388 -38.3379
   -38.3059 -38.2944 -38.2914 -38.2869 -38.2862 -38.2655 -38.2575 -38.2414
   -38.2280 -38.2243 -38.2010 -38.1977 -38.1755 -38.1549 -38.1539 -38.1333
   -38.1284 -38.1239 -38.1215 -38.1129 -38.1088 -38.0654 -38.0600 -38.0553
   -38.0482 -38.0388 -38.0352 -37.9433 -37.9366 -37.9312 -37.8402 -37.8330
   -37.8324 -37.8182 -37.8113 -37.8083  10.3559  10.4327  10.4707  10.8649
    11.8005  11.9195  11.9278  12.1649  12.2469  12.2731  12.3369  12.5473
    12.5568  12.5975  12.6276  12.6738  12.6805  12.7077  12.7079  12.7749
    12.8056  12.8619  12.8697  12.9068  12.9492  12.9673  13.0063  13.1052
    13.1436  13.1928  13.2019  13.2928  13.3082  13.3225  13.3565  13.3714
    13.4144  13.4394  13.4505  13.5484  13.5685  13.5758  13.6440  13.6689
    13.7721  14.2224  14.2246  14.2882  14.6919  14.6976  14.7214  14.8026
    14.8160  14.8413  14.8644  14.8764  14.9361  14.9441  15.0041  15.0284
    15.0600  15.1105  15.1286  15.1354  15.1778  15.2064  15.2083  15.2185
    15.2519  15.2579  15.2974  15.3620  15.3896  15.4217  15.4947  15.6094
    15.6575  15.8192  15.9418  16.6914  16.7424  16.7526  16.8751  20.1731
    20.3087

          k =-0.5000-0.5000-0.5000 (  6488 PWs)   bands (ev):

   -88.0755 -72.3870 -72.2593 -72.2592 -72.2592 -72.2090 -72.1566 -72.1566
   -72.1566 -72.1238 -72.1238 -72.1237 -71.9028 -71.9017 -71.9017 -48.2841
   -48.2841 -48.1783 -38.4814 -38.3709 -38.3709 -38.3622 -38.3357 -38.3357
   -38.3054 -38.2881 -38.2881 -38.2846 -38.2810 -38.2575 -38.2575 -38.2511
   -38.2253 -38.2253 -38.2048 -38.2048 -38.1639 -38.1556 -38.1556 -38.1383
   -38.1364 -38.1364 -38.1347 -38.1270 -38.1270 -38.0488 -38.0461 -38.0461
   -38.0441 -38.0324 -38.0324 -37.9410 -37.9410 -37.9400 -37.8414 -37.8352
   -37.8352 -37.8211 -37.8132 -37.8132  10.9667  11.1086  11.1086  11.1603
    11.1898  11.2053  11.2053  12.0623  12.6412  12.6412  12.6889  12.6889
    12.7001  12.7137  12.7137  12.7150  12.7298  12.7773  12.7773  12.8197
    12.8540  12.8540  12.8998  12.8998  12.9535  12.9535  12.9758  13.0296
    13.0296  13.0843  13.1015  13.1348  13.1348  13.1451  13.1587  13.1813
    13.1813  13.2007  13.2022  13.2022  13.2202  13.2505  13.2505  13.5806
    13.5806  14.1693  14.1900  14.1900  14.7573  14.7573  14.8611  14.8611
    14.8698  14.9345  14.9345  14.9612  14.9612  14.9917  15.0252  15.0857
    15.0857  15.1422  15.1422  15.1431  15.2288  15.3308  15.3308  15.3692
    15.3692  15.3954  15.4454  15.4454  15.5251  15.5883  15.5883  15.7126
    15.7126  15.7521  15.8207  16.0429  16.0429  16.0639  16.1321  22.3781
    22.3781

          k =-0.2500 0.0000 0.2500 (  6500 PWs)   bands (ev):

   -88.0756 -72.3872 -72.2635 -72.2576 -72.2569 -72.2089 -72.1579 -72.1572
   -72.1547 -72.1245 -72.1238 -72.1230 -71.9037 -71.9034 -71.8995 -48.2917
   -48.2883 -48.1805 -38.4885 -38.3942 -38.3939 -38.3580 -38.3466 -38.3455
   -38.3128 -38.3019 -38.2890 -38.2867 -38.2751 -38.2637 -38.2540 -38.2381
   -38.2347 -38.2287 -38.2175 -38.1930 -38.1875 -38.1575 -38.1525 -38.1364
   -38.1237 -38.1101 -38.0927 -38.0879 -38.0769 -38.0751 -38.0716 -38.0677
   -38.0551 -38.0497 -38.0440 -37.9592 -37.9280 -37.9243 -37.8558 -37.8472
   -37.8182 -37.8153 -37.8098 -37.8042   8.6825  10.6172  10.8453  11.4140
    11.6875  11.7008  11.7253  11.7676  11.7847  11.9292  11.9434  11.9964
    12.2279  12.2421  12.4980  12.5632  12.6009  12.7150  12.7692  12.8273
    12.8526  12.8977  12.9692  13.0102  13.0128  13.0362  13.2170  13.3015
    13.4117  13.4357  13.5075  13.5365  13.6316  13.6655  13.7134  13.7689
    13.8038  13.8945  13.9118  14.0270  14.1018  14.1918  14.2671  14.3260
    14.3744  14.3944  14.4083  14.4374  14.4653  14.5204  14.5932  14.6227
    14.6653  14.7725  14.8253  14.8625  14.9088  14.9376  15.0048  15.0428
    15.0696  15.1205  15.1411  15.1628  15.1786  15.2160  15.2485  15.3124
    15.3573  15.4050  15.4403  15.4600  15.5228  15.5419  15.6022  15.6323
    15.6929  15.7784  16.2208  16.5289  16.5665  17.5023  17.6652  17.8461
    18.0760

          k = 0.2500-0.2500 0.2500 (  6493 PWs)   bands (ev):

   -88.0756 -72.3871 -72.2627 -72.2577 -72.2574 -72.2090 -72.1579 -72.1569
   -72.1550 -72.1246 -72.1238 -72.1230 -71.9034 -71.9030 -71.9001 -48.2874
   -48.2871 -48.1815 -38.4871 -38.3897 -38.3881 -38.3592 -38.3442 -38.3418
   -38.3050 -38.3041 -38.2894 -38.2883 -38.2810 -38.2652 -38.2586 -38.2382
   -38.2330 -38.2241 -38.2126 -38.1981 -38.1806 -38.1596 -38.1537 -38.1332
   -38.1275 -38.1201 -38.1161 -38.0886 -38.0862 -38.0718 -38.0657 -38.0575
   -38.0505 -38.0435 -38.0432 -37.9555 -37.9277 -37.9275 -37.8520 -37.8393
   -37.8229 -37.8173 -37.8082 -37.8075   8.9750  10.8225  10.8720  11.1270
    11.5873  11.6099  11.7390  11.8926  11.9342  12.0443  12.1225  12.1275
    12.3834  12.3900  12.5265  12.5589  12.5792  12.7319  12.7364  12.8289
    12.8619  12.9002  12.9322  13.0287  13.0507  13.1109  13.1270  13.3192
    13.3214  13.3456  13.3744  13.4309  13.4608  13.5860  13.6031  13.7082
    13.7285  13.7514  13.7569  13.8826  13.9617  14.0057  14.1348  14.1741
    14.2150  14.2173  14.3731  14.4505  14.4579  14.5447  14.5507  14.6692
    14.7125  14.7461  14.7971  14.8825  14.9036  14.9291  14.9786  14.9884
    15.0379  15.0814  15.1082  15.1200  15.1553  15.1725  15.2073  15.2126
    15.3276  15.3353  15.3873  15.4721  15.5311  15.5770  15.6141  15.6952
    15.7455  15.8625  15.8667  16.5540  16.5554  16.6695  18.4702  18.5309
    18.7703

          k = 0.2500-0.2500-0.5000 (  6456 PWs)   bands (ev):

   -88.0755 -72.3870 -72.2614 -72.2589 -72.2573 -72.2090 -72.1578 -72.1566
   -72.1552 -72.1246 -72.1238 -72.1229 -71.9033 -71.9020 -71.9009 -48.2782
   -48.2776 -48.1738 -38.4848 -38.3849 -38.3808 -38.3604 -38.3416 -38.3383
   -38.3065 -38.3000 -38.2905 -38.2829 -38.2816 -38.2617 -38.2600 -38.2377
   -38.2302 -38.2240 -38.2023 -38.1972 -38.1748 -38.1635 -38.1493 -38.1403
   -38.1318 -38.1189 -38.1147 -38.1001 -38.0902 -38.0710 -38.0628 -38.0536
   -38.0453 -38.0441 -38.0291 -37.9485 -37.9327 -37.9266 -37.8424 -37.8352
   -37.8259 -37.8186 -37.8096 -37.8073   9.6856   9.9166  11.2512  11.3483
    11.3564  11.6151  12.1154  12.1473  12.1714  12.1998  12.2342  12.2480
    12.2924  12.3731  12.3946  12.5166  12.5608  12.6936  12.7324  12.8460
    12.9327  12.9722  13.0100  13.0301  13.0788  13.1147  13.1546  13.2114
    13.2662  13.3266  13.3662  13.4028  13.4424  13.4648  13.4987  13.5173
    13.5408  13.5507  13.5863  13.5895  13.7184  13.7932  13.8105  13.9592
    14.0631  14.2365  14.3345  14.4086  14.5372  14.5751  14.6419  14.6540
    14.7065  14.7408  14.7959  14.8037  14.8126  14.9422  14.9688  15.0190
    15.0326  15.0718  15.1267  15.1452  15.1619  15.1861  15.2041  15.2552
    15.2748  15.3490  15.3870  15.4594  15.4688  15.6318  15.7075  15.8117
    15.8647  15.8687  15.8916  16.0333  16.0530  17.6805  17.8695  19.1702
    19.2447

 ------ SPIN DOWN ----------


          k = 0.0000 0.0000 0.0000 (  6451 PWs)   bands (ev):

   -86.7336 -68.9370 -68.9168 -68.9168 -68.8869 -68.8693 -68.8495 -68.8495
   -68.8413 -68.8413 -68.8400 -68.8367 -68.8367 -68.8233 -68.7959 -46.9263
   -46.9263 -46.8575 -35.2011 -35.1887 -35.1887 -35.1576 -35.1394 -35.1394
   -35.0711 -35.0683 -35.0683 -35.0246 -35.0157 -35.0157 -35.0044 -35.0044
   -35.0019 -34.9963 -34.9963 -34.9771 -34.9717 -34.9717 -34.9622 -34.9606
   -34.9541 -34.9541 -34.9465 -34.9430 -34.9430 -34.9245 -34.9149 -34.9149
   -34.8972 -34.8972 -34.8830 -34.8486 -34.8219 -34.8219 -34.8083 -34.8083
   -34.7845 -34.7778 -34.7778 -34.7717   8.2172  12.1786  12.2453  12.2453
    12.3481  12.3481  12.5163  12.9129  12.9129  13.0125  13.0318  13.0318
    13.5840  13.7552  13.7552  14.3314  14.3314  14.4335  14.7059  14.7059
    14.7440  14.9186  14.9186  14.9838  15.2057  15.2057  15.3555  15.4638
    15.4638  15.6881  15.7343  15.9132  16.0651  16.0651  16.1426  16.1426
    16.3665  16.3665  16.3777  16.4716  16.4716  16.4877  16.5412  16.5412
    16.5882  16.7411  16.7411  16.8997  17.0411  17.0411  17.0428  17.2797
    17.2797  17.3326  17.3326  17.4225  17.5707  17.5707  17.6562  17.8991
    17.9872  17.9872  18.0274  18.1025  18.1025  18.2228  18.2228  18.3541
    18.3541  18.3973  18.4115  18.4131  18.4131  18.4410  18.5779  18.5779
    18.7868  18.7868  18.8163  18.8163  18.8889  18.8889  18.9213  18.9632
    19.0483

          k = 0.0000 0.0000 0.2500 (  6495 PWs)   bands (ev):

   -86.7337 -68.9341 -68.9190 -68.9168 -68.8872 -68.8707 -68.8548 -68.8491
   -68.8424 -68.8418 -68.8405 -68.8368 -68.8281 -68.8212 -68.7988 -46.9391
   -46.9348 -46.8680 -35.1930 -35.1820 -35.1798 -35.1477 -35.1364 -35.1356
   -35.0821 -35.0796 -35.0741 -35.0644 -35.0609 -35.0461 -35.0351 -35.0195
   -35.0150 -35.0053 -34.9823 -34.9769 -34.9740 -34.9666 -34.9606 -34.9493
   -34.9320 -34.9312 -34.9227 -34.9188 -34.9170 -34.9101 -34.9022 -34.8950
   -34.8935 -34.8831 -34.8770 -34.8556 -34.8343 -34.8313 -34.8206 -34.8173
   -34.8054 -34.7973 -34.7946 -34.7885   8.5213  10.7966  12.4054  12.4086
    12.5048  12.5713  12.9263  12.9565  12.9973  13.0020  13.2115  13.3334
    13.6806  13.8732  13.8798  14.2555  14.3435  14.3881  14.5272  14.7956
    14.8060  14.8598  14.9292  15.0175  15.0618  15.0848  15.3677  15.3837
    15.4409  15.4814  15.6264  15.8082  15.8960  15.9082  15.9815  16.0601
    16.0855  16.1137  16.1730  16.2408  16.2696  16.3491  16.3497  16.4863
    16.5078  16.6848  16.7816  16.8505  16.8809  16.8938  17.0865  17.1844
    17.2088  17.3115  17.4024  17.6557  17.7207  17.7372  17.7972  17.8720
    17.9266  17.9680  18.0542  18.0703  18.1560  18.1625  18.2722  18.3223
    18.3507  18.3719  18.4092  18.4828  18.5212  18.6298  18.6510  18.7023
    18.7081  18.7323  18.8334  18.8468  18.8695  18.9162  18.9529  18.9706
    18.9879

          k = 0.0000 0.0000-0.5000 (  6480 PWs)   bands (ev):

   -86.7337 -68.9291 -68.9233 -68.9167 -68.8875 -68.8724 -68.8577 -68.8487
   -68.8426 -68.8422 -68.8403 -68.8368 -68.8261 -68.8138 -68.8041 -46.9391
   -46.9305 -46.8651 -35.1460 -35.1454 -35.1412 -35.1371 -35.1364 -35.1222
   -35.1215 -35.1154 -35.1123 -35.1008 -35.0764 -35.0699 -35.0586 -35.0230
   -35.0180 -35.0029 -34.9932 -34.9878 -34.9808 -34.9696 -34.9633 -34.9440
   -34.9237 -34.9098 -34.9047 -34.9002 -34.8929 -34.8860 -34.8841 -34.8794
   -34.8732 -34.8713 -34.8543 -34.8522 -34.8443 -34.8361 -34.8284 -34.8229
   -34.8206 -34.8143 -34.8140 -34.8041   9.2875   9.5748  12.6241  12.6872
    12.7059  12.7529  12.8756  12.8963  12.9313  13.1454  13.5399  13.6251
    13.7713  13.9523  14.0028  14.0618  14.1151  14.3237  14.4466  14.5502
    14.8537  14.8626  14.9450  15.0836  15.1883  15.2674  15.3513  15.3824
    15.4328  15.4334  15.4493  15.5480  15.5775  15.5902  15.6518  15.8051
    15.8329  15.8498  15.9565  15.9984  16.0819  16.1705  16.1806  16.3321
    16.3513  16.6288  16.7575  17.0388  17.0642  17.2415  17.3240  17.3427
    17.4162  17.4588  17.4966  17.6390  17.6973  17.7412  17.7797  17.8312
    17.8958  17.9276  18.0795  18.2034  18.2467  18.3053  18.3241  18.3388
    18.3632  18.4035  18.4311  18.4581  18.4817  18.5005  18.5195  18.6084
    18.6126  18.7167  18.7782  18.8453  18.8470  18.9563  19.0130  19.0586
    19.0692

          k = 0.0000 0.2500 0.2500 (  6500 PWs)   bands (ev):

   -86.7337 -68.9312 -68.9201 -68.9177 -68.8876 -68.8698 -68.8596 -68.8516
   -68.8441 -68.8420 -68.8398 -68.8314 -68.8228 -68.8223 -68.8014 -46.9397
   -46.9341 -46.8715 -35.1852 -35.1666 -35.1568 -35.1349 -35.1267 -35.1257
   -35.1184 -35.1017 -35.0947 -35.0852 -35.0571 -35.0546 -35.0368 -35.0144
   -35.0067 -35.0028 -34.9942 -34.9780 -34.9768 -34.9725 -34.9674 -34.9586
   -34.9403 -34.9395 -34.9249 -34.9235 -34.9058 -34.8978 -34.8915 -34.8812
   -34.8780 -34.8642 -34.8591 -34.8562 -34.8388 -34.8303 -34.8298 -34.8225
   -34.8182 -34.8056 -34.7914 -34.7877   8.8244  10.9713  11.1013  12.4238
    12.6436  12.6764  13.0584  13.1792  13.2268  13.2585  13.4197  13.5283
    13.7953  13.9191  14.0419  14.2161  14.3286  14.3851  14.5442  14.7097
    14.7951  14.8163  14.8646  14.9480  15.0604  15.0665  15.1539  15.2597
    15.3551  15.4650  15.5377  15.6400  15.6945  15.7478  15.7950  15.8498
    15.9344  15.9555  16.0208  16.1236  16.1461  16.1970  16.2788  16.4269
    16.5028  16.6056  16.6897  16.8579  16.9644  17.0820  17.1413  17.1615
    17.2957  17.3292  17.4092  17.5087  17.5822  17.7343  17.8228  17.9222
    18.0033  18.0411  18.0422  18.0957  18.1305  18.2070  18.2289  18.2762
    18.2767  18.3651  18.3778  18.3878  18.4574  18.4576  18.4776  18.5517
    18.5681  18.6923  18.8413  18.9930  19.0409  19.5093  19.6316  19.7047
    19.7241

          k = 0.0000 0.2500-0.5000 (  6452 PWs)   bands (ev):

   -86.7337 -68.9272 -68.9227 -68.9181 -68.8879 -68.8709 -68.8605 -68.8544
   -68.8439 -68.8420 -68.8390 -68.8304 -68.8238 -68.8144 -68.8061 -46.9301
   -46.9240 -46.8578 -35.1568 -35.1479 -35.1414 -35.1359 -35.1330 -35.1285
   -35.1153 -35.1101 -35.0990 -35.0759 -35.0657 -35.0591 -35.0437 -35.0339
   -35.0163 -34.9957 -34.9936 -34.9841 -34.9776 -34.9764 -34.9699 -34.9474
   -34.9303 -34.9301 -34.9231 -34.9148 -34.9103 -34.8965 -34.8892 -34.8769
   -34.8719 -34.8628 -34.8526 -34.8458 -34.8317 -34.8303 -34.8234 -34.8187
   -34.8115 -34.8056 -34.8026 -34.7918   9.5720   9.8446  11.5496  11.8286
    12.8875  12.9450  13.1059  13.2040  13.5138  13.5774  13.6489  13.6916
    13.8531  13.9553  14.0313  14.0945  14.1877  14.3982  14.4549  14.6215
    14.7353  14.8357  14.9124  15.0042  15.0427  15.0810  15.1655  15.2165
    15.2662  15.3427  15.3864  15.4784  15.5050  15.6148  15.6315  15.6749
    15.7059  15.7798  15.8363  15.9145  15.9963  16.0691  16.1543  16.4247
    16.4974  16.5418  16.8625  16.9185  17.0284  17.1343  17.2043  17.3347
    17.4051  17.4313  17.4853  17.5535  17.5711  17.5993  17.7112  17.8123
    17.8798  17.9605  18.0153  18.0669  18.1216  18.2242  18.2574  18.2785
    18.3187  18.3452  18.3801  18.4039  18.4157  18.4347  18.4765  18.5354
    18.6434  18.7281  18.8551  19.2518  19.3231  19.3541  19.4083  20.1824
    20.4233

          k = 0.0000-0.5000-0.5000 (  6496 PWs)   bands (ev):

   -86.7337 -68.9234 -68.9229 -68.9205 -68.8884 -68.8673 -68.8644 -68.8598
   -68.8436 -68.8419 -68.8371 -68.8289 -68.8191 -68.8147 -68.8094 -46.9414
   -46.9334 -46.8680 -35.1622 -35.1448 -35.1420 -35.1409 -35.1397 -35.1311
   -35.1145 -35.1118 -35.0934 -35.0647 -35.0519 -35.0490 -35.0157 -35.0130
   -35.0100 -35.0011 -34.9985 -34.9972 -34.9910 -34.9855 -34.9748 -34.9613
   -34.9612 -34.9507 -34.9442 -34.9374 -34.9215 -34.9032 -34.8884 -34.8810
   -34.8695 -34.8654 -34.8565 -34.8406 -34.8332 -34.8268 -34.8218 -34.8182
   -34.8083 -34.7968 -34.7944 -34.7854  10.2961  10.4370  10.4413  10.9485
    13.3016  13.3111  13.3438  13.4812  13.5447  13.6285  13.6417  13.7714
    13.9690  13.9871  14.0479  14.0614  14.4003  14.4054  14.5221  14.5414
    14.6711  14.7140  14.7175  14.7842  14.8739  14.9793  15.0386  15.0412
    15.2601  15.2660  15.3405  15.3711  15.4121  15.4547  15.5099  15.5323
    15.6706  15.7027  15.7495  15.8979  16.0173  16.1122  16.1922  16.4317
    16.4694  16.6084  16.6157  16.9294  16.9322  16.9858  17.1470  17.2301
    17.2531  17.3887  17.4928  17.5889  17.6460  17.6872  17.7172  17.7793
    17.8229  17.8690  17.9382  17.9406  18.0611  18.1012  18.1607  18.2333
    18.2528  18.2811  18.2845  18.3161  18.3496  18.4194  18.4572  18.5808
    18.7363  18.8015  18.9897  19.8210  19.8892  20.0051  20.0913  20.1522
    20.2732

          k = 0.2500 0.2500 0.2500 (  6493 PWs)   bands (ev):

   -86.7337 -68.9285 -68.9198 -68.9198 -68.8881 -68.8669 -68.8604 -68.8604
   -68.8415 -68.8415 -68.8405 -68.8249 -68.8227 -68.8227 -68.8036 -46.9368
   -46.9368 -46.8675 -35.1745 -35.1379 -35.1379 -35.1292 -35.1292 -35.1225
   -35.1201 -35.1201 -35.1181 -35.0590 -35.0590 -35.0470 -35.0470 -35.0414
   -35.0277 -35.0091 -34.9937 -34.9937 -34.9781 -34.9747 -34.9747 -34.9375
   -34.9375 -34.9236 -34.9141 -34.9141 -34.9096 -34.9096 -34.9062 -34.8930
   -34.8773 -34.8543 -34.8543 -34.8522 -34.8311 -34.8260 -34.8260 -34.8190
   -34.8190 -34.8019 -34.8019 -34.7910   9.1205  11.2206  11.2206  11.4033
    12.6248  12.6248  12.7943  13.4275  13.4275  13.5901  13.6926  13.6926
    14.0079  14.0657  14.0657  14.1063  14.4021  14.4197  14.4197  14.7656
    14.7678  14.7678  14.8411  14.8411  15.0602  15.0677  15.0719  15.0719
    15.4038  15.4038  15.4314  15.4673  15.4673  15.6598  15.6990  15.6990
    15.7320  15.7613  15.7613  15.9825  15.9825  16.1620  16.1620  16.2849
    16.5164  16.6210  16.6210  17.0018  17.1478  17.1478  17.2336  17.2594
    17.2594  17.4055  17.5105  17.5105  17.5837  17.7426  17.7896  17.7896
    17.9306  18.0288  18.0288  18.1188  18.1894  18.1894  18.2510  18.2510
    18.3173  18.3173  18.3437  18.4017  18.4017  18.5009  18.5009  18.5635
    18.5694  18.5694  18.6556  18.9882  18.9882  19.0128  20.2372  20.2372
    20.3736

          k = 0.2500 0.2500-0.5000 (  6456 PWs)   bands (ev):

   -86.7337 -68.9254 -68.9219 -68.9195 -68.8886 -68.8691 -68.8613 -68.8602
   -68.8428 -68.8410 -68.8395 -68.8273 -68.8226 -68.8147 -68.8074 -46.9314
   -46.9258 -46.8578 -35.1521 -35.1466 -35.1454 -35.1288 -35.1241 -35.1191
   -35.1044 -35.1026 -35.0887 -35.0797 -35.0660 -35.0504 -35.0470 -35.0319
   -35.0267 -35.0174 -35.0059 -35.0010 -34.9840 -34.9807 -34.9802 -34.9416
   -34.9389 -34.9345 -34.9219 -34.9083 -34.9006 -34.8964 -34.8877 -34.8752
   -34.8736 -34.8582 -34.8548 -34.8523 -34.8325 -34.8255 -34.8233 -34.8181
   -34.8071 -34.8065 -34.8010 -34.7948   9.8556  10.1142  11.7990  11.8031
    11.9461  12.2134  13.2005  13.5190  13.6345  13.7078  13.7913  13.8191
    13.9662  14.0776  14.1817  14.2253  14.3079  14.4159  14.5795  14.6188
    14.6622  14.8665  14.8938  14.9317  14.9493  14.9912  15.0825  15.1252
    15.1761  15.2159  15.3482  15.4027  15.4231  15.4789  15.5526  15.5783
    15.6043  15.7035  15.7553  15.8141  15.8440  15.9123  15.9817  16.2659
    16.4263  16.5282  16.7464  16.8649  17.0390  17.1577  17.2970  17.3778
    17.4358  17.5152  17.5530  17.5732  17.7038  17.7160  17.8550  17.8616
    17.9853  17.9949  18.0986  18.1494  18.1809  18.2115  18.2200  18.2594
    18.2760  18.3239  18.3299  18.3533  18.3898  18.4539  18.4768  18.5259
    18.5378  18.5765  18.6185  18.6363  18.7056  19.8270  19.9842  20.7679
    20.8201

          k = 0.2500-0.5000-0.5000 (  6472 PWs)   bands (ev):

   -86.7337 -68.9227 -68.9225 -68.9201 -68.8892 -68.8680 -68.8666 -68.8583
   -68.8447 -68.8401 -68.8379 -68.8294 -68.8171 -68.8149 -68.8098 -46.9318
   -46.9311 -46.8627 -35.1465 -35.1323 -35.1306 -35.1235 -35.1222 -35.1171
   -35.1062 -35.0968 -35.0885 -35.0684 -35.0499 -35.0475 -35.0462 -35.0411
   -35.0372 -35.0309 -35.0291 -35.0216 -35.0073 -34.9893 -34.9848 -34.9400
   -34.9353 -34.9298 -34.9109 -34.9048 -34.9012 -34.8920 -34.8842 -34.8828
   -34.8697 -34.8617 -34.8538 -34.8460 -34.8324 -34.8322 -34.8258 -34.8199
   -34.8125 -34.8078 -34.8041 -34.7965  10.5664  10.7132  10.7153  11.1703
    12.3881  12.5311  12.5416  13.0875  13.8083  13.9353  14.0435  14.0827
    14.1050  14.2140  14.2688  14.3723  14.4858  14.4955  14.5666  14.5933
    14.7086  14.7115  14.8036  14.8344  14.8634  14.9725  14.9946  15.0783
    15.1339  15.2013  15.2429  15.3030  15.3393  15.4038  15.4514  15.4761
    15.5156  15.5963  15.6312  15.7207  15.7287  15.8133  15.9011  15.9421
    16.0607  16.6064  16.6257  16.7832  17.1424  17.2027  17.4012  17.4338
    17.5729  17.6645  17.6880  17.7233  17.7739  17.8697  17.8779  17.8978
    17.9053  17.9862  18.0194  18.0325  18.0823  18.1720  18.1762  18.2162
    18.2190  18.2538  18.2946  18.2951  18.3144  18.3667  18.3858  18.4493
    18.5170  18.5671  18.6636  19.0956  19.1488  19.1711  19.2200  21.6743
    21.8372

          k =-0.5000-0.5000-0.5000 (  6488 PWs)   bands (ev):

   -86.7337 -68.9221 -68.9221 -68.9196 -68.8901 -68.8687 -68.8687 -68.8565
   -68.8465 -68.8385 -68.8385 -68.8295 -68.8151 -68.8151 -68.8104 -46.9335
   -46.9335 -46.8648 -35.1065 -35.1065 -35.1035 -35.1035 -35.1021 -35.0946
   -35.0913 -35.0913 -35.0791 -35.0783 -35.0783 -35.0758 -35.0740 -35.0740
   -35.0652 -35.0562 -35.0409 -35.0409 -35.0210 -34.9882 -34.9882 -34.9321
   -34.9321 -34.9288 -34.8817 -34.8817 -34.8794 -34.8746 -34.8746 -34.8730
   -34.8654 -34.8618 -34.8618 -34.8496 -34.8407 -34.8372 -34.8372 -34.8251
   -34.8251 -34.8195 -34.8195 -34.8084  11.1900  11.4274  11.4274  11.4533
    11.5205  11.5550  11.5550  12.5407  13.9940  13.9940  14.1765  14.1765
    14.2712  14.5870  14.5870  14.6000  14.6340  14.7020  14.7020  14.7169
    14.7169  14.8349  14.8462  14.8489  14.8489  15.0088  15.0568  15.0568
    15.0779  15.0779  15.2583  15.2879  15.2879  15.3238  15.3423  15.3423
    15.3585  15.3726  15.4373  15.4373  15.4387  15.5459  15.5459  15.6364
    15.6364  16.6395  16.6395  16.6713  17.3006  17.3006  17.4924  17.4924
    17.7190  17.9227  17.9413  17.9413  17.9750  17.9750  18.0090  18.0090
    18.0694  18.1280  18.1280  18.1460  18.1460  18.1641  18.1929  18.2114
    18.2591  18.2591  18.2824  18.2824  18.3110  18.3505  18.3505  18.3880
    18.3919  18.3919  18.4134  18.5396  18.5396  18.5562  18.8174  23.4713
    23.4713

          k =-0.2500 0.0000 0.2500 (  6500 PWs)   bands (ev):

   -86.7337 -68.9318 -68.9189 -68.9181 -68.8875 -68.8715 -68.8557 -68.8535
   -68.8439 -68.8418 -68.8403 -68.8301 -68.8281 -68.8188 -68.8014 -46.9409
   -46.9376 -46.8669 -35.1807 -35.1744 -35.1712 -35.1441 -35.1238 -35.1227
   -35.1063 -35.1029 -35.0841 -35.0653 -35.0560 -35.0531 -35.0360 -35.0180
   -35.0087 -35.0036 -34.9897 -34.9849 -34.9775 -34.9713 -34.9682 -34.9600
   -34.9596 -34.9324 -34.9224 -34.9198 -34.9121 -34.9028 -34.8923 -34.8906
   -34.8808 -34.8652 -34.8582 -34.8518 -34.8430 -34.8317 -34.8265 -34.8190
   -34.8055 -34.8011 -34.7991 -34.7859   8.8260  10.8934  11.1864  12.4129
    12.6420  12.6668  13.0902  13.1852  13.2211  13.3273  13.3853  13.4817
    13.7909  13.9397  13.9812  14.1849  14.3139  14.4576  14.5166  14.7491
    14.7708  14.8235  14.8818  14.9031  15.0249  15.1328  15.1771  15.3505
    15.3942  15.4576  15.5210  15.5938  15.6785  15.7494  15.7853  15.8438
    15.9160  15.9822  16.0381  16.0477  16.0858  16.2109  16.3571  16.4494
    16.5264  16.5636  16.7027  16.8639  16.8832  17.0204  17.1305  17.2016
    17.2684  17.3064  17.4008  17.6256  17.6969  17.7164  17.8490  17.8854
    17.9576  17.9681  18.0597  18.1014  18.1573  18.2293  18.2420  18.2767
    18.2844  18.3213  18.3491  18.3842  18.4512  18.4705  18.5081  18.5248
    18.5572  18.5838  18.9879  19.0079  19.0612  19.4138  19.5164  19.7115
    19.8573

          k = 0.2500-0.2500 0.2500 (  6493 PWs)   bands (ev):

   -86.7337 -68.9296 -68.9198 -68.9183 -68.8880 -68.8712 -68.8605 -68.8528
   -68.8453 -68.8414 -68.8387 -68.8311 -68.8227 -68.8183 -68.8036 -46.9367
   -46.9363 -46.8679 -35.1667 -35.1603 -35.1583 -35.1319 -35.1246 -35.1217
   -35.1161 -35.1044 -35.0772 -35.0631 -35.0586 -35.0524 -35.0440 -35.0396
   -35.0235 -35.0200 -35.0102 -34.9948 -34.9879 -34.9789 -34.9753 -34.9346
   -34.9332 -34.9219 -34.9201 -34.9179 -34.9063 -34.9015 -34.8945 -34.8881
   -34.8813 -34.8641 -34.8559 -34.8551 -34.8380 -34.8237 -34.8229 -34.8179
   -34.8120 -34.8010 -34.7996 -34.7948   9.1237  11.1171  11.2214  11.5197
    12.5751  12.6103  12.8462  13.4801  13.5409  13.5870  13.6408  13.6600
    13.9139  13.9806  14.0879  14.1676  14.2819  14.3730  14.4947  14.6557
    14.7989  14.8296  14.8773  14.9178  14.9759  15.0680  15.1657  15.2803
    15.3056  15.3826  15.4016  15.4736  15.5441  15.6362  15.6531  15.6809
    15.7610  15.7771  15.8327  15.8747  15.9927  16.0522  16.1803  16.2952
    16.5270  16.5696  16.7287  16.8779  16.9195  17.1054  17.1286  17.3600
    17.3802  17.4477  17.4613  17.6273  17.6831  17.7636  17.8519  17.9187
    17.9279  17.9631  18.0269  18.1009  18.1249  18.2238  18.2596  18.2706
    18.2904  18.3319  18.3370  18.3680  18.4490  18.4794  18.5000  18.5229
    18.5375  18.5957  18.6292  18.9662  18.9689  19.0278  20.2038  20.2578
    20.4268

          k = 0.2500-0.2500-0.5000 (  6456 PWs)   bands (ev):

   -86.7337 -68.9258 -68.9225 -68.9182 -68.8885 -68.8708 -68.8639 -68.8530
   -68.8464 -68.8408 -68.8378 -68.8317 -68.8196 -68.8147 -68.8076 -46.9276
   -46.9272 -46.8603 -35.1495 -35.1435 -35.1404 -35.1359 -35.1244 -35.1182
   -35.1046 -35.0910 -35.0861 -35.0795 -35.0713 -35.0581 -35.0548 -35.0433
   -35.0262 -35.0143 -35.0085 -34.9968 -34.9914 -34.9858 -34.9802 -34.9419
   -34.9338 -34.9249 -34.9171 -34.9007 -34.8987 -34.8897 -34.8839 -34.8786
   -34.8724 -34.8625 -34.8559 -34.8464 -34.8424 -34.8294 -34.8228 -34.8156
   -34.8119 -34.8084 -34.7990 -34.7956   9.8563  10.1167  11.7155  11.8751
    11.9097  12.2678  13.1895  13.5015  13.6631  13.8008  13.8372  13.8695
    13.9184  13.9768  14.1492  14.1923  14.2900  14.3941  14.5208  14.5815
    14.7371  14.8491  14.9033  14.9475  14.9753  15.0252  15.1179  15.1397
    15.1829  15.2373  15.3546  15.3983  15.4465  15.4769  15.5574  15.5818
    15.6015  15.6929  15.7204  15.7509  15.8029  15.8906  15.9704  16.3572
    16.4486  16.5978  16.6690  16.8587  16.9950  17.0363  17.3201  17.3458
    17.4160  17.5256  17.5838  17.6622  17.7324  17.7914  17.8332  17.8720
    17.9539  18.0034  18.0639  18.1052  18.1710  18.1919  18.2575  18.2835
    18.3264  18.3418  18.3592  18.3799  18.3980  18.4479  18.4743  18.5268
    18.5412  18.5778  18.6135  18.6282  18.6594  19.7952  19.9664  20.7468
    20.8440

     the Fermi energy is    16.2436 ev

!    total energy              =   -3807.99365189 Ry
     estimated scf accuracy    <          2.0E-09 Ry
     smearing contrib. (-TS)   =       0.01605567 Ry
     internal energy E=F+TS    =   -3808.00970756 Ry

     The total energy is F=E-TS. E is the sum of the following terms:
     one-electron contribution =   -1953.87858390 Ry
     hartree contribution      =    1103.09541354 Ry
     xc contribution           =    -422.84166389 Ry
     ewald contribution        =   -2534.38487331 Ry

     total magnetization       =    36.62 Bohr mag/cell
     absolute magnetization    =    39.11 Bohr mag/cell

     convergence has been achieved in  14 iterations

     negative rho (up, down):  0.000E+00 3.056E-03

     Forces acting on atoms (cartesian axes, Ry/au):

     atom    1 type  2   force =     0.00033908    0.00033908    0.00033908
     atom    2 type  1   force =    -0.00086948   -0.00042299   -0.00042299
     atom    3 type  1   force =    -0.00042299   -0.00086948   -0.00042299
     atom    4 type  1   force =     0.00005589    0.00005589   -0.00055357
     atom    5 type  1   force =    -0.00042299   -0.00042299   -0.00086948
     atom    6 type  1   force =     0.00005589   -0.00055357    0.00005589
     atom    7 type  1   force =    -0.00055357    0.00005589    0.00005589
     atom    8 type  1   force =    -0.00059318   -0.00059318   -0.00059318
     atom    9 type  1   force =     0.00006202    0.00051245    0.00051245
     atom   10 type  1   force =     0.00051245    0.00006202    0.00051245
     atom   11 type  1   force =     0.00045080    0.00045080   -0.00046883
     atom   12 type  1   force =     0.00051245    0.00051245    0.00006202
     atom   13 type  1   force =     0.00045080   -0.00046883    0.00045080
     atom   14 type  1   force =    -0.00046883    0.00045080    0.00045080
     atom   15 type  1   force =     0.00089164    0.00089164    0.00089164

     Total force =     0.003396     Total SCF correction =     0.000163
     Energy error            =      2.1E-05 Ry
     Gradient error          =      8.9E-04 Ry/Bohr

     bfgs converged in  15 scf cycles and  14 bfgs steps
     (criteria: energy <  1.0E-04 Ry, force <  1.0E-03 Ry/Bohr)

     End of BFGS Geometry Optimization

     Final energy             =   -3807.9936518893 Ry

     File ./outdir/fe15_ni1_end.bfgs deleted, as requested
Begin final coordinates

ATOMIC_POSITIONS (crystal)
Ni               0.0007413165        0.0007413165        0.0007413165
Fe               0.4887068962        0.0114791797        0.0114791797
Fe               0.0114791797        0.4887068962        0.0114791797
Fe               0.4965667524        0.4965667524        0.0060772615
Fe               0.0114791797        0.0114791797        0.4887068962
Fe               0.4965667524        0.0060772615        0.4965667524
Fe               0.0060772615        0.4965667524        0.4965667524
Fe               0.4874076153        0.4874076153        0.4874076153
Fe               0.7539039560        0.2484380307        0.2484380307
Fe               0.2484380307        0.7539039560        0.2484380307
Fe               0.7482406785        0.7482406785        0.2517949607
Fe               0.2484380307        0.2484380307        0.7539039560
Fe               0.7482406785        0.2517949607        0.7482406785
Fe               0.2517949607        0.7482406785        0.7482406785
Fe               0.7519187112        0.7519187112        0.7519187112
End final coordinates



     Writing all to output data dir ./outdir/fe15_ni1_end.save/ :
     XML data file, charge density, pseudopotentials, collected wavefunctions

     init_run     :      8.43s CPU      8.80s WALL (       1 calls)
     electrons    :   7998.94s CPU   8241.70s WALL (      15 calls)
     update_pot   :      2.72s CPU      2.76s WALL (      14 calls)
     forces       :     51.71s CPU     53.29s WALL (      15 calls)

     Called by init_run:
     wfcinit      :      6.66s CPU      6.91s WALL (       1 calls)
     potinit      :      0.44s CPU      0.46s WALL (       1 calls)
     hinit0       :      0.78s CPU      0.79s WALL (       1 calls)

     Called by electrons:
     c_bands      :   6734.39s CPU   6895.29s WALL (     343 calls)
     sum_band     :   1021.54s CPU   1078.92s WALL (     343 calls)
     v_of_rho     :     61.80s CPU     62.83s WALL (     356 calls)
     newd         :    167.77s CPU    190.98s WALL (     356 calls)
     mix_rho      :     18.89s CPU     19.53s WALL (     343 calls)

     Called by c_bands:
     init_us_2    :     83.50s CPU     83.84s WALL (   18252 calls)
     cegterg      :   6428.48s CPU   6588.33s WALL (    8918 calls)

     Called by *egterg:
     cdiaghg      :   1264.99s CPU   1267.67s WALL (   30451 calls)
     h_psi        :   3156.50s CPU   3290.73s WALL (   30893 calls)
     s_psi        :    379.10s CPU    380.04s WALL (   30893 calls)
     g_psi        :     32.22s CPU     32.35s WALL (   21949 calls)

     Called by h_psi:
     h_psi:calbec :    393.54s CPU    401.02s WALL (   30893 calls)
     vloc_psi     :   2356.39s CPU   2478.79s WALL (   30893 calls)
                                        0.00s GPU  (   30893 calls)
     add_vuspsi   :    380.92s CPU    381.90s WALL (   30893 calls)

     General routines
     calbec       :    581.05s CPU    591.96s WALL (   41371 calls)
     fft          :     20.30s CPU     21.63s WALL (    9113 calls)
     ffts         :      5.85s CPU      6.15s WALL (    9920 calls)
     fftw         :   2496.08s CPU   2622.07s WALL ( 7343012 calls)
     interpolate  :      2.70s CPU      2.86s WALL (     712 calls)

     Parallel routines

     PWSCF        :      2h14m CPU      2h18m WALL


   This run was terminated on:  22:38: 0   1Jul2026            

=------------------------------------------------------------------------------=
   JOB DONE.
=------------------------------------------------------------------------------=
