
     Program PWSCF v.7.5 starts on 25Jun2026 at 17:45:59 

     This program is part of the open-source Quantum ESPRESSO suite
     for quantum simulation of materials; please cite
         "P. Giannozzi et al., J. Phys.:Condens. Matter 21 395502 (2009);
         "P. Giannozzi et al., J. Phys.:Condens. Matter 29 465901 (2017);
         "P. Giannozzi et al., J. Chem. Phys. 152 154105 (2020);
          URL http://www.quantum-espresso.org", 
     in publications or presentations arising from this work. More details at
     http://www.quantum-espresso.org/quote

     Parallel version (MPI & OpenMP), running on      16 processor cores
     Number of MPI processes:                 4
     Threads/MPI process:                     4

     MPI processes distributed on     1 nodes
     23663 MiB available memory on the printing compute node when the environment starts

     Reading input from relax_start.scf.in

     Current dimensions of program PWSCF are:
     Max number of different atomic species (ntypx) = 10
     Max number of k-points (npk) =  40000
     Max angular momentum in pseudopotentials (lmaxx) =  4
     file Fe.pbe-spn-rrkjus_psl.1.0.0.UPF: wavefunction(s)  3P 3D renormalized
     file Ni.pbe-spn-rrkjus_psl.1.0.0.UPF: wavefunction(s)  3P 3D renormalized

     R & G space division:  proc/nbgrp/npool/nimage =       4
     Subspace diagonalization in iterative solution of the eigenvalue problem:
     a serial algorithm will be used


     Parallelization info
     --------------------
     sticks:   dense  smooth     PW     G-vecs:    dense   smooth      PW
     Min         841     421    122                36633    12965    2030
     Max         842     422    123                36634    12968    2031
     Sum        3365    1685    489               146533    51867    8121

     Using Slab Decomposition



     bravais-lattice index     =            1
     lattice parameter (alat)  =      10.8320  a.u.
     unit-cell volume          =    1270.9427 (a.u.)^3
     number of atoms/cell      =           15
     number of atomic types    =            2
     number of electrons       =       242.00
     number of Kohn-Sham states=          145
     kinetic-energy cutoff     =      45.0000  Ry
     charge density cutoff     =     360.0000  Ry
     scf convergence threshold =      1.0E-06
     mixing beta               =       0.1000
     number of iterations used =            8  local-TF  mixing
     energy convergence thresh.=      1.0E-04
     force convergence thresh. =      1.0E-03
     Exchange-correlation= PBE
                           (   1   4   3   4   0   0   0)
     nstep                     =           50


     celldm(1)=  10.832000  celldm(2)=   0.000000  celldm(3)=   0.000000
     celldm(4)=   0.000000  celldm(5)=   0.000000  celldm(6)=   0.000000

     crystal axes: (cart. coord. in units of alat)
               a(1) = (   1.000000   0.000000   0.000000 )  
               a(2) = (   0.000000   1.000000   0.000000 )  
               a(3) = (   0.000000   0.000000   1.000000 )  

     reciprocal axes: (cart. coord. in units 2 pi/alat)
               b(1) = (  1.000000  0.000000  0.000000 )  
               b(2) = (  0.000000  1.000000  0.000000 )  
               b(3) = (  0.000000  0.000000  1.000000 )  


     PseudoPot. # 1 for Fe read from file:
     ../../pseudo/Fe.pbe-spn-rrkjus_psl.1.0.0.UPF
     MD5 check sum: 72ea77fed8e64ab3a2ccf2804dfc1862
     Pseudo is Ultrasoft + core correction, Zval = 16.0
     Generated using &quot;atomic&quot; code by A. Dal Corso  v.6.3
     Using radial grid of 1191 points,  6 beta functions with: 
                l(1) =   0
                l(2) =   0
                l(3) =   1
                l(4) =   1
                l(5) =   2
                l(6) =   2
     Q(r) pseudized with 0 coefficients 


     PseudoPot. # 2 for Ni read from file:
     ../../pseudo/Ni.pbe-spn-rrkjus_psl.1.0.0.UPF
     MD5 check sum: 8b3fc9aac6dafe35f580d41bb18c3945
     Pseudo is Ultrasoft + core correction, Zval = 18.0
     Generated using &quot;atomic&quot; code by A. Dal Corso  v.6.3
     Using radial grid of 1195 points,  6 beta functions with: 
                l(1) =   0
                l(2) =   0
                l(3) =   1
                l(4) =   1
                l(5) =   2
                l(6) =   2
     Q(r) pseudized with 0 coefficients 


     atomic species   valence    mass     pseudopotential
     Fe               16.00    55.84500     Fe( 1.00)
     Ni               18.00    58.69300     Ni( 1.00)

     Starting magnetic structure 
     atomic species   magnetization
     Fe              0.500
     Ni              0.000

      6 Sym. Ops. (no inversion) found



   Cartesian axes

     site n.     atom                  positions (alat units)
         1        Ni     tau(   1) = (   0.2500000   0.2500000   0.2500000  )
         2        Fe     tau(   2) = (   0.5000000   0.0000000   0.0000000  )
         3        Fe     tau(   3) = (   0.0000000   0.5000000   0.0000000  )
         4        Fe     tau(   4) = (   0.5000000   0.5000000   0.0000000  )
         5        Fe     tau(   5) = (   0.0000000   0.0000000   0.5000000  )
         6        Fe     tau(   6) = (   0.5000000   0.0000000   0.5000000  )
         7        Fe     tau(   7) = (   0.0000000   0.5000000   0.5000000  )
         8        Fe     tau(   8) = (   0.5000000   0.5000000   0.5000000  )
         9        Fe     tau(   9) = (   0.7500000   0.2500000   0.2500000  )
        10        Fe     tau(  10) = (   0.2500000   0.7500000   0.2500000  )
        11        Fe     tau(  11) = (   0.7500000   0.7500000   0.2500000  )
        12        Fe     tau(  12) = (   0.2500000   0.2500000   0.7500000  )
        13        Fe     tau(  13) = (   0.7500000   0.2500000   0.7500000  )
        14        Fe     tau(  14) = (   0.2500000   0.7500000   0.7500000  )
        15        Fe     tau(  15) = (   0.7500000   0.7500000   0.7500000  )

     number of k points=    13  Marzari-Vanderbilt smearing, width (Ry)=  0.0200
                       cart. coord. in units 2pi/alat
        k(    1) = (   0.0000000   0.0000000   0.0000000), wk =   0.0156250
        k(    2) = (   0.0000000   0.0000000   0.2500000), wk =   0.0937500
        k(    3) = (   0.0000000   0.0000000  -0.5000000), wk =   0.0468750
        k(    4) = (   0.0000000   0.2500000   0.2500000), wk =   0.0937500
        k(    5) = (   0.0000000   0.2500000  -0.5000000), wk =   0.1875000
        k(    6) = (   0.0000000  -0.5000000  -0.5000000), wk =   0.0468750
        k(    7) = (   0.2500000   0.2500000   0.2500000), wk =   0.0312500
        k(    8) = (   0.2500000   0.2500000  -0.5000000), wk =   0.0937500
        k(    9) = (   0.2500000  -0.5000000  -0.5000000), wk =   0.0937500
        k(   10) = (  -0.5000000  -0.5000000  -0.5000000), wk =   0.0156250
        k(   11) = (  -0.2500000   0.0000000   0.2500000), wk =   0.0937500
        k(   12) = (   0.2500000  -0.2500000   0.2500000), wk =   0.0937500
        k(   13) = (   0.2500000  -0.2500000  -0.5000000), wk =   0.0937500

     Dense  grid:   146533 G-vectors     FFT dimensions: (  72,  72,  72)

     Smooth grid:    51867 G-vectors     FFT dimensions: (  48,  48,  48)

     Estimated max dynamical RAM per process >     270.75 MB

     Estimated total dynamical RAM >       1.06 GB

     Check: negative core charge=   -0.000004
     Generating pointlists ...
     new r_m :   0.1786 (alat units)  1.9348 (a.u.) for type    1
     new r_m :   0.1786 (alat units)  1.9348 (a.u.) for type    2

     Initial potential from superposition of free atoms

     starting charge     241.9936, renormalised to     242.0000
     Starting wfcs are  150 randomized atomic wfcs

     total cpu time spent up to now is      289.3 secs

     per-process dynamical memory:   149.7 Mb

     Self-consistent Calculation

     iteration #  1     ecut=    45.00 Ry     beta= 0.10
     Davidson diagonalization with overlap
     ethr =  1.00E-02,  avg # of iterations =  3.3

     total cpu time spent up to now is     1175.6 secs

     total energy              =   -3802.92906364 Ry
     estimated scf accuracy    <       8.68592662 Ry

     total magnetization       =    47.52 Bohr mag/cell
     absolute magnetization    =    48.97 Bohr mag/cell

     iteration #  2     ecut=    45.00 Ry     beta= 0.10
     Davidson diagonalization with overlap
     ethr =  3.59E-03,  avg # of iterations =  1.4

     negative rho (up, down):  0.000E+00 4.080E-03

     total cpu time spent up to now is     1888.5 secs

     total energy              =   -3806.47816032 Ry
     estimated scf accuracy    <       7.01708547 Ry

     total magnetization       =    47.36 Bohr mag/cell
     absolute magnetization    =    48.99 Bohr mag/cell

     iteration #  3     ecut=    45.00 Ry     beta= 0.10
     Davidson diagonalization with overlap
     ethr =  2.90E-03,  avg # of iterations =  2.7

     negative rho (up, down):  0.000E+00 5.287E-03

     total cpu time spent up to now is     2660.7 secs

     total energy              =   -3807.24792614 Ry
     estimated scf accuracy    <      15.47514879 Ry

     total magnetization       =    41.54 Bohr mag/cell
     absolute magnetization    =    48.48 Bohr mag/cell

     iteration #  4     ecut=    45.00 Ry     beta= 0.10
     Davidson diagonalization with overlap
     ethr =  2.90E-03,  avg # of iterations =  1.8

     negative rho (up, down):  0.000E+00 5.214E-03

     total cpu time spent up to now is     3401.1 secs

     total energy              =   -3807.52582903 Ry
     estimated scf accuracy    <      24.35420619 Ry

     total magnetization       =    36.54 Bohr mag/cell
     absolute magnetization    =    41.72 Bohr mag/cell

     iteration #  5     ecut=    45.00 Ry     beta= 0.10
     Davidson diagonalization with overlap
     ethr =  2.90E-03,  avg # of iterations =  1.0

     negative rho (up, down):  0.000E+00 7.058E-03

     total cpu time spent up to now is     4095.9 secs

     total energy              =   -3808.14453703 Ry
     estimated scf accuracy    <      23.89312354 Ry

     total magnetization       =    36.66 Bohr mag/cell
     absolute magnetization    =    41.62 Bohr mag/cell

     iteration #  6     ecut=    45.00 Ry     beta= 0.10
     Davidson diagonalization with overlap
     ethr =  2.90E-03,  avg # of iterations =  1.5

     negative rho (up, down):  0.000E+00 8.994E-03

     total cpu time spent up to now is     4814.2 secs

     total energy              =   -3808.11611135 Ry
     estimated scf accuracy    <      31.94671268 Ry

     total magnetization       =    34.40 Bohr mag/cell
     absolute magnetization    =    39.60 Bohr mag/cell

     iteration #  7     ecut=    45.00 Ry     beta= 0.10
     Davidson diagonalization with overlap
     ethr =  2.90E-03,  avg # of iterations =  2.2

     negative rho (up, down):  0.000E+00 9.023E-03

     total cpu time spent up to now is     5620.3 secs

     total energy              =   -3808.89835485 Ry
     estimated scf accuracy    <      57.39243372 Ry

     total magnetization       =    35.56 Bohr mag/cell
     absolute magnetization    =    47.28 Bohr mag/cell

     iteration #  8     ecut=    45.00 Ry     beta= 0.10
     Davidson diagonalization with overlap
     ethr =  2.90E-03,  avg # of iterations =  1.0

     negative rho (up, down):  6.526E-05 8.976E-03

     total cpu time spent up to now is     6325.6 secs

     total energy              =   -3808.76583360 Ry
     estimated scf accuracy    <      49.39850198 Ry

     total magnetization       =    35.38 Bohr mag/cell
     absolute magnetization    =    46.04 Bohr mag/cell

     iteration #  9     ecut=    45.00 Ry     beta= 0.10
     Davidson diagonalization with overlap
     ethr =  2.90E-03,  avg # of iterations =  1.0

     negative rho (up, down):  7.982E-04 8.888E-03

     total cpu time spent up to now is     7026.0 secs

     total energy              =   -3807.92413677 Ry
     estimated scf accuracy    <      44.53272398 Ry

     total magnetization       =    35.37 Bohr mag/cell
     absolute magnetization    =    45.13 Bohr mag/cell

     iteration # 10     ecut=    45.00 Ry     beta= 0.10
     Davidson diagonalization with overlap
     ethr =  2.90E-03,  avg # of iterations =  1.5

     negative rho (up, down):  7.811E-04 8.133E-03

     total cpu time spent up to now is     7747.1 secs

     total energy              =   -3807.39479048 Ry
     estimated scf accuracy    <      16.37411202 Ry

     total magnetization       =    35.23 Bohr mag/cell
     absolute magnetization    =    40.89 Bohr mag/cell

     iteration # 11     ecut=    45.00 Ry     beta= 0.10
     Davidson diagonalization with overlap
     ethr =  2.90E-03,  avg # of iterations =  1.7

     negative rho (up, down):  6.571E-05 7.583E-03

     total cpu time spent up to now is     8470.5 secs

     total energy              =   -3807.72734030 Ry
     estimated scf accuracy    <       5.89783869 Ry

     total magnetization       =    36.94 Bohr mag/cell
     absolute magnetization    =    40.16 Bohr mag/cell

     iteration # 12     ecut=    45.00 Ry     beta= 0.10
     Davidson diagonalization with overlap
     ethr =  2.44E-03,  avg # of iterations =  1.0

     negative rho (up, down):  4.232E-06 6.759E-03

     total cpu time spent up to now is     9183.0 secs

     total energy              =   -3807.72594024 Ry
     estimated scf accuracy    <       2.53544738 Ry

     total magnetization       =    37.22 Bohr mag/cell
     absolute magnetization    =    39.42 Bohr mag/cell

     iteration # 13     ecut=    45.00 Ry     beta= 0.10
     Davidson diagonalization with overlap
     ethr =  1.05E-03,  avg # of iterations =  1.1

     negative rho (up, down):  0.000E+00 6.243E-03

     total cpu time spent up to now is     9893.6 secs

     total energy              =   -3807.74646963 Ry
     estimated scf accuracy    <       1.93657055 Ry

     total magnetization       =    37.32 Bohr mag/cell
     absolute magnetization    =    39.28 Bohr mag/cell

     iteration # 14     ecut=    45.00 Ry     beta= 0.10
     Davidson diagonalization with overlap
     ethr =  8.00E-04,  avg # of iterations =  2.0

     negative rho (up, down):  0.000E+00 6.385E-03

     total cpu time spent up to now is    10618.2 secs

     total energy              =   -3807.66243749 Ry
     estimated scf accuracy    <       4.14758023 Ry

     total magnetization       =    37.33 Bohr mag/cell
     absolute magnetization    =    41.23 Bohr mag/cell

     iteration # 15     ecut=    45.00 Ry     beta= 0.10
     Davidson diagonalization with overlap
     ethr =  8.00E-04,  avg # of iterations =  2.0

     negative rho (up, down):  0.000E+00 6.033E-03

     total cpu time spent up to now is    11386.6 secs

     total energy              =   -3807.83472005 Ry
     estimated scf accuracy    <       3.01098034 Ry

     total magnetization       =    36.98 Bohr mag/cell
     absolute magnetization    =    40.39 Bohr mag/cell

     iteration # 16     ecut=    45.00 Ry     beta= 0.10
     Davidson diagonalization with overlap
     ethr =  8.00E-04,  avg # of iterations =  1.0

     negative rho (up, down):  0.000E+00 5.446E-03

     total cpu time spent up to now is    12088.3 secs

     total energy              =   -3807.75859087 Ry
     estimated scf accuracy    <       1.21039780 Ry

     total magnetization       =    37.18 Bohr mag/cell
     absolute magnetization    =    39.82 Bohr mag/cell

     iteration # 17     ecut=    45.00 Ry     beta= 0.10
     Davidson diagonalization with overlap
     ethr =  5.00E-04,  avg # of iterations =  1.5

     negative rho (up, down):  0.000E+00 4.662E-03

     total cpu time spent up to now is    12846.3 secs

     total energy              =   -3807.83113852 Ry
     estimated scf accuracy    <       0.88747697 Ry

     total magnetization       =    37.32 Bohr mag/cell
     absolute magnetization    =    40.13 Bohr mag/cell

     iteration # 18     ecut=    45.00 Ry     beta= 0.10
     Davidson diagonalization with overlap
     ethr =  3.67E-04,  avg # of iterations =  1.7

     negative rho (up, down):  0.000E+00 4.678E-03

     total cpu time spent up to now is    13584.4 secs

     total energy              =   -3807.85184955 Ry
     estimated scf accuracy    <       0.43368429 Ry

     total magnetization       =    36.76 Bohr mag/cell
     absolute magnetization    =    39.39 Bohr mag/cell

     iteration # 19     ecut=    45.00 Ry     beta= 0.10
     Davidson diagonalization with overlap
     ethr =  1.79E-04,  avg # of iterations =  1.5

     negative rho (up, down):  0.000E+00 4.767E-03

     total cpu time spent up to now is    14323.5 secs

     total energy              =   -3807.89081188 Ry
     estimated scf accuracy    <       0.11170327 Ry

     total magnetization       =    36.57 Bohr mag/cell
     absolute magnetization    =    39.01 Bohr mag/cell

     iteration # 20     ecut=    45.00 Ry     beta= 0.10
     Davidson diagonalization with overlap
     ethr =  4.62E-05,  avg # of iterations =  2.4

     negative rho (up, down):  0.000E+00 4.823E-03

     total cpu time spent up to now is    15048.1 secs

     total energy              =   -3807.90790357 Ry
     estimated scf accuracy    <       0.03569255 Ry

     total magnetization       =    36.57 Bohr mag/cell
     absolute magnetization    =    38.91 Bohr mag/cell

     iteration # 21     ecut=    45.00 Ry     beta= 0.10
     Davidson diagonalization with overlap
     ethr =  1.47E-05,  avg # of iterations =  2.6

     negative rho (up, down):  0.000E+00 4.950E-03

     total cpu time spent up to now is    15799.2 secs

     total energy              =   -3807.92190304 Ry
     estimated scf accuracy    <       0.00938519 Ry

     total magnetization       =    36.59 Bohr mag/cell
     absolute magnetization    =    38.91 Bohr mag/cell

     iteration # 22     ecut=    45.00 Ry     beta= 0.10
     Davidson diagonalization with overlap
     c_bands:  1 eigenvalues not converged
     c_bands:  2 eigenvalues not converged
     ethr =  3.88E-06,  avg # of iterations =  7.8

     negative rho (up, down):  0.000E+00 5.016E-03

     total cpu time spent up to now is    16687.1 secs

     total energy              =   -3807.93091641 Ry
     estimated scf accuracy    <       0.00304437 Ry

     total magnetization       =    36.57 Bohr mag/cell
     absolute magnetization    =    38.92 Bohr mag/cell

     iteration # 23     ecut=    45.00 Ry     beta= 0.10
     Davidson diagonalization with overlap
     ethr =  1.26E-06,  avg # of iterations =  4.1

     negative rho (up, down):  0.000E+00 5.004E-03

     total cpu time spent up to now is    17512.0 secs

     total energy              =   -3807.94102299 Ry
     estimated scf accuracy    <       0.00963723 Ry

     total magnetization       =    36.54 Bohr mag/cell
     absolute magnetization    =    38.92 Bohr mag/cell

     iteration # 24     ecut=    45.00 Ry     beta= 0.10
     Davidson diagonalization with overlap
     ethr =  1.26E-06,  avg # of iterations =  1.5

     negative rho (up, down):  0.000E+00 5.008E-03

     total cpu time spent up to now is    18219.9 secs

     total energy              =   -3807.94932289 Ry
     estimated scf accuracy    <       0.00567939 Ry

     total magnetization       =    36.54 Bohr mag/cell
     absolute magnetization    =    38.92 Bohr mag/cell

     iteration # 25     ecut=    45.00 Ry     beta= 0.10
     Davidson diagonalization with overlap
     ethr =  1.26E-06,  avg # of iterations =  2.0

     negative rho (up, down):  0.000E+00 4.998E-03

     total cpu time spent up to now is    18979.2 secs

     total energy              =   -3807.95485956 Ry
     estimated scf accuracy    <       0.00027037 Ry

     total magnetization       =    36.55 Bohr mag/cell
     absolute magnetization    =    38.93 Bohr mag/cell

     iteration # 26     ecut=    45.00 Ry     beta= 0.10
     Davidson diagonalization with overlap
     ethr =  1.12E-07,  avg # of iterations =  3.2

     negative rho (up, down):  0.000E+00 4.945E-03

     total cpu time spent up to now is    19786.0 secs

     total energy              =   -3807.95902927 Ry
     estimated scf accuracy    <       0.00019899 Ry

     total magnetization       =    36.54 Bohr mag/cell
     absolute magnetization    =    38.93 Bohr mag/cell

     iteration # 27     ecut=    45.00 Ry     beta= 0.10
     Davidson diagonalization with overlap
     ethr =  8.22E-08,  avg # of iterations =  2.3

     negative rho (up, down):  0.000E+00 4.941E-03

     total cpu time spent up to now is    20601.0 secs

     total energy              =   -3807.96353857 Ry
     estimated scf accuracy    <       0.00145255 Ry

     total magnetization       =    36.51 Bohr mag/cell
     absolute magnetization    =    38.91 Bohr mag/cell

     iteration # 28     ecut=    45.00 Ry     beta= 0.10
     Davidson diagonalization with overlap
     ethr =  8.22E-08,  avg # of iterations =  2.0

     negative rho (up, down):  0.000E+00 4.924E-03

     total cpu time spent up to now is    21375.5 secs

     total energy              =   -3807.96703705 Ry
     estimated scf accuracy    <       0.00033322 Ry

     total magnetization       =    36.51 Bohr mag/cell
     absolute magnetization    =    38.91 Bohr mag/cell

     iteration # 29     ecut=    45.00 Ry     beta= 0.10
     Davidson diagonalization with overlap
     ethr =  8.22E-08,  avg # of iterations =  2.0

     negative rho (up, down):  0.000E+00 4.909E-03

     total cpu time spent up to now is    22172.1 secs

     total energy              =   -3807.96913466 Ry
     estimated scf accuracy    <       0.00065204 Ry

     total magnetization       =    36.54 Bohr mag/cell
     absolute magnetization    =    38.93 Bohr mag/cell

     iteration # 30     ecut=    45.00 Ry     beta= 0.10
     Davidson diagonalization with overlap
     ethr =  8.22E-08,  avg # of iterations =  2.0

     negative rho (up, down):  0.000E+00 4.907E-03

     total cpu time spent up to now is    22938.3 secs

     total energy              =   -3807.97125444 Ry
     estimated scf accuracy    <       0.00001098 Ry

     total magnetization       =    36.54 Bohr mag/cell
     absolute magnetization    =    38.94 Bohr mag/cell

     iteration # 31     ecut=    45.00 Ry     beta= 0.10
     Davidson diagonalization with overlap
     ethr =  4.54E-09,  avg # of iterations =  3.1

     negative rho (up, down):  0.000E+00 4.910E-03

     total cpu time spent up to now is    23767.8 secs

     total energy              =   -3807.97312774 Ry
     estimated scf accuracy    <       0.00003001 Ry

     total magnetization       =    36.54 Bohr mag/cell
     absolute magnetization    =    38.94 Bohr mag/cell

     iteration # 32     ecut=    45.00 Ry     beta= 0.10
     Davidson diagonalization with overlap
     ethr =  4.54E-09,  avg # of iterations =  2.0

     negative rho (up, down):  0.000E+00 4.915E-03

     total cpu time spent up to now is    24569.5 secs

     total energy              =   -3807.97453768 Ry
     estimated scf accuracy    <       0.00001360 Ry

     total magnetization       =    36.56 Bohr mag/cell
     absolute magnetization    =    38.95 Bohr mag/cell

     iteration # 33     ecut=    45.00 Ry     beta= 0.10
     Davidson diagonalization with overlap
     ethr =  4.54E-09,  avg # of iterations =  2.1

     negative rho (up, down):  0.000E+00 4.916E-03

     total cpu time spent up to now is    25391.2 secs

     total energy              =   -3807.97581874 Ry
     estimated scf accuracy    <       0.00004146 Ry

     total magnetization       =    36.55 Bohr mag/cell
     absolute magnetization    =    38.95 Bohr mag/cell

     iteration # 34     ecut=    45.00 Ry     beta= 0.10
     Davidson diagonalization with overlap
     ethr =  4.54E-09,  avg # of iterations =  2.0

     negative rho (up, down):  0.000E+00 4.913E-03

     total cpu time spent up to now is    26136.5 secs

     total energy              =   -3807.97686498 Ry
     estimated scf accuracy    <       0.00005697 Ry

     total magnetization       =    36.56 Bohr mag/cell
     absolute magnetization    =    38.95 Bohr mag/cell

     iteration # 35     ecut=    45.00 Ry     beta= 0.10
     Davidson diagonalization with overlap
     ethr =  4.54E-09,  avg # of iterations =  2.0

     negative rho (up, down):  0.000E+00 4.918E-03

     total cpu time spent up to now is    26927.6 secs

     total energy              =   -3807.97778194 Ry
     estimated scf accuracy    <       0.00018797 Ry

     total magnetization       =    36.55 Bohr mag/cell
     absolute magnetization    =    38.95 Bohr mag/cell

     iteration # 36     ecut=    45.00 Ry     beta= 0.10
     Davidson diagonalization with overlap
     ethr =  4.54E-09,  avg # of iterations =  2.0

     negative rho (up, down):  0.000E+00 4.921E-03

     total cpu time spent up to now is    27702.3 secs

     total energy              =   -3807.97851839 Ry
     estimated scf accuracy    <       0.00017324 Ry

     total magnetization       =    36.56 Bohr mag/cell
     absolute magnetization    =    38.95 Bohr mag/cell

     iteration # 37     ecut=    45.00 Ry     beta= 0.10
     Davidson diagonalization with overlap
     ethr =  4.54E-09,  avg # of iterations =  2.0

     negative rho (up, down):  0.000E+00 4.921E-03

     total cpu time spent up to now is    28485.4 secs

     total energy              =   -3807.97910531 Ry
     estimated scf accuracy    <       0.00014722 Ry

     total magnetization       =    36.56 Bohr mag/cell
     absolute magnetization    =    38.95 Bohr mag/cell

     iteration # 38     ecut=    45.00 Ry     beta= 0.10
     Davidson diagonalization with overlap
     ethr =  4.54E-09,  avg # of iterations =  2.0

     negative rho (up, down):  0.000E+00 4.918E-03

     total cpu time spent up to now is    29251.7 secs

     total energy              =   -3807.97956782 Ry
     estimated scf accuracy    <       0.00010996 Ry

     total magnetization       =    36.56 Bohr mag/cell
     absolute magnetization    =    38.95 Bohr mag/cell

     iteration # 39     ecut=    45.00 Ry     beta= 0.10
     Davidson diagonalization with overlap
     ethr =  4.54E-09,  avg # of iterations =  2.3

     negative rho (up, down):  0.000E+00 4.920E-03

     total cpu time spent up to now is    30080.1 secs

     total energy              =   -3807.97988889 Ry
     estimated scf accuracy    <       0.00000153 Ry

     total magnetization       =    36.56 Bohr mag/cell
     absolute magnetization    =    38.95 Bohr mag/cell

     iteration # 40     ecut=    45.00 Ry     beta= 0.10
     Davidson diagonalization with overlap
     ethr =  6.34E-10,  avg # of iterations =  4.4

     negative rho (up, down):  0.000E+00 4.918E-03

     total cpu time spent up to now is    31043.6 secs

     total energy              =   -3807.98013048 Ry
     estimated scf accuracy    <       0.00001906 Ry

     total magnetization       =    36.56 Bohr mag/cell
     absolute magnetization    =    38.95 Bohr mag/cell

     iteration # 41     ecut=    45.00 Ry     beta= 0.10
     Davidson diagonalization with overlap
     ethr =  6.34E-10,  avg # of iterations =  2.0

     negative rho (up, down):  0.000E+00 4.916E-03

     total cpu time spent up to now is    31796.9 secs

     total energy              =   -3807.98033187 Ry
     estimated scf accuracy    <       0.00000673 Ry

     total magnetization       =    36.56 Bohr mag/cell
     absolute magnetization    =    38.95 Bohr mag/cell

     iteration # 42     ecut=    45.00 Ry     beta= 0.10
     Davidson diagonalization with overlap
     ethr =  6.34E-10,  avg # of iterations =  2.0

     negative rho (up, down):  0.000E+00 4.905E-03

     Magnetic moment per site  (integrated on atomic sphere of radius R)
     atom   1 (R=0.179)  charge= 16.6314  magn=  0.9477
     atom   2 (R=0.179)  charge= 14.4191  magn=  2.5187
     atom   3 (R=0.179)  charge= 14.4191  magn=  2.5187
     atom   4 (R=0.179)  charge= 14.4110  magn=  2.6190
     atom   5 (R=0.179)  charge= 14.4191  magn=  2.5187
     atom   6 (R=0.179)  charge= 14.4110  magn=  2.6190
     atom   7 (R=0.179)  charge= 14.4110  magn=  2.6190
     atom   8 (R=0.179)  charge= 14.4160  magn=  2.6731
     atom   9 (R=0.179)  charge= 14.3868  magn=  2.6037
     atom  10 (R=0.179)  charge= 14.3868  magn=  2.6037
     atom  11 (R=0.179)  charge= 14.3811  magn=  2.6569
     atom  12 (R=0.179)  charge= 14.3868  magn=  2.6037
     atom  13 (R=0.179)  charge= 14.3811  magn=  2.6569
     atom  14 (R=0.179)  charge= 14.3811  magn=  2.6569
     atom  15 (R=0.179)  charge= 14.3845  magn=  2.6632

     total cpu time spent up to now is    32598.8 secs

     End of self-consistent calculation

 ------ SPIN UP ------------


          k = 0.0000 0.0000 0.0000 (  6451 PWs)   bands (ev):

   -88.0350 -72.2412 -72.2177 -72.2177 -72.1994 -72.1936 -72.1936 -72.1794
   -72.1498 -72.0992 -72.0992 -72.0980 -71.9915 -71.9915 -71.9843 -48.2383
   -48.2383 -48.1300 -38.3847 -38.3641 -38.3641 -38.3209 -38.3209 -38.3179
   -38.2830 -38.2792 -38.2792 -38.2634 -38.2507 -38.2340 -38.2340 -38.2186
   -38.1730 -38.1724 -38.1724 -38.1588 -38.1588 -38.1213 -38.1213 -38.1168
   -38.1059 -38.1059 -38.1004 -38.0881 -38.0881 -38.0609 -38.0556 -38.0556
   -38.0505 -38.0505 -38.0464 -38.0445 -37.9662 -37.9662 -37.9373 -37.9373
   -37.8729 -37.8710 -37.8696 -37.8696   8.0502  11.3239  11.4024  11.4024
    11.4308  11.4690  11.4690  11.5202  11.5202  11.6461  11.7251  11.7251
    11.9940  11.9940  12.5044  12.7552  12.7608  12.7608  12.8029  12.8029
    12.8106  12.9283  12.9283  12.9618  13.1680  13.1680  13.2015  13.2221
    13.3176  13.3176  13.3605  13.7568  13.7568  13.8125  13.8125  13.8182
    14.0434  14.0434  14.0579  14.1553  14.1553  14.1651  14.1651  14.1841
    14.1864  14.5753  14.6137  14.6137  14.7134  14.8108  14.8108  14.8427
    14.8427  15.0073  15.0252  15.0391  15.0391  15.1012  15.1012  15.1343
    15.1343  15.1593  15.1593  15.1879  15.1879  15.2087  15.2217  15.5362
    15.6678  15.6678  16.0173  16.0173  16.0457  16.0457  16.1625  16.1625
    16.1746  16.1812  16.2882  16.2882  16.3256  16.5583  16.5583  16.5743
    16.6149

          k = 0.0000 0.0000 0.2500 (  6495 PWs)   bands (ev):

   -88.0351 -72.2391 -72.2208 -72.2178 -72.2004 -72.1937 -72.1916 -72.1798
   -72.1498 -72.1000 -72.0994 -72.0972 -71.9917 -71.9907 -71.9851 -48.2512
   -48.2468 -48.1406 -38.3851 -38.3666 -38.3647 -38.3227 -38.3218 -38.3165
   -38.2926 -38.2753 -38.2728 -38.2647 -38.2450 -38.2379 -38.2304 -38.2169
   -38.2002 -38.1952 -38.1773 -38.1724 -38.1435 -38.1423 -38.1327 -38.1179
   -38.1098 -38.1020 -38.0888 -38.0878 -38.0821 -38.0683 -38.0557 -38.0478
   -38.0432 -38.0338 -38.0287 -38.0280 -37.9798 -37.9750 -37.9369 -37.9342
   -37.8863 -37.8855 -37.8815 -37.8811   8.3461  10.5107  11.4390  11.4674
    11.5098  11.5587  11.5744  11.5902  11.6637  11.7420  11.7971  11.8027
    12.0595  12.1376  12.5008  12.6712  12.7030  12.7032  12.7225  12.7873
    12.8378  12.8466  12.9095  13.0615  13.0681  13.1576  13.2012  13.2255
    13.2729  13.5188  13.5375  13.6934  13.7174  13.7224  13.7726  13.7814
    13.8274  13.8532  13.9786  14.0793  14.0855  14.2469  14.3475  14.4149
    14.4316  14.5093  14.5100  14.5433  14.5750  14.6372  14.6986  14.8005
    14.8099  14.8795  14.9352  14.9731  15.0246  15.0373  15.0658  15.0674
    15.1143  15.1209  15.1517  15.1605  15.1737  15.1860  15.2101  15.2494
    15.3052  15.4825  15.5802  15.6052  15.6651  15.9155  16.0483  16.0726
    16.0957  16.1385  16.2692  16.2821  16.4435  16.6026  16.7895  16.8451
    17.0155

          k = 0.0000 0.0000-0.5000 (  6480 PWs)   bands (ev):

   -88.0351 -72.2356 -72.2250 -72.2178 -72.2010 -72.1936 -72.1898 -72.1804
   -72.1497 -72.1005 -72.0994 -72.0966 -71.9917 -71.9891 -71.9866 -48.2512
   -48.2421 -48.1378 -38.3800 -38.3599 -38.3521 -38.3215 -38.3104 -38.2959
   -38.2912 -38.2871 -38.2834 -38.2600 -38.2516 -38.2383 -38.2316 -38.2192
   -38.2178 -38.2099 -38.1958 -38.1786 -38.1510 -38.1478 -38.1366 -38.1177
   -38.1102 -38.0994 -38.0873 -38.0854 -38.0727 -38.0716 -38.0474 -38.0414
   -38.0390 -38.0191 -38.0138 -38.0111 -37.9897 -37.9759 -37.9303 -37.9204
   -37.8997 -37.8953 -37.8859 -37.8853   9.0518   9.4341  11.5354  11.5608
    11.6347  11.7053  11.7387  11.7645  11.7895  11.8946  11.9046  11.9720
    12.0096  12.1471  12.2809  12.3656  12.4747  12.6682  12.6783  12.7050
    12.8965  12.9059  13.1804  13.1852  13.2029  13.2365  13.3050  13.3868
    13.4205  13.4907  13.5347  13.5840  13.6373  13.6484  13.6877  13.7545
    13.7816  13.7905  13.8056  13.8984  13.9027  14.0569  14.2005  14.2317
    14.3068  14.3935  14.4239  14.4413  14.5563  14.5610  14.7013  14.7054
    14.7435  14.7508  14.7694  14.9543  14.9954  15.0136  15.0337  15.0761
    15.0834  15.1670  15.1673  15.1921  15.1939  15.1991  15.2179  15.2483
    15.4450  15.6113  15.6131  15.7070  15.7115  15.7412  15.7857  15.7958
    15.8260  16.2483  16.3706  16.4127  16.4982  16.6681  16.6944  16.7118
    16.7432

          k = 0.0000 0.2500 0.2500 (  6500 PWs)   bands (ev):

   -88.0352 -72.2366 -72.2226 -72.2190 -72.2015 -72.1928 -72.1903 -72.1806
   -72.1497 -72.1001 -72.0994 -72.0971 -71.9912 -71.9902 -71.9860 -48.2519
   -48.2460 -48.1442 -38.3824 -38.3625 -38.3572 -38.3165 -38.3136 -38.3090
   -38.2974 -38.2807 -38.2777 -38.2738 -38.2465 -38.2383 -38.2344 -38.2231
   -38.2089 -38.1975 -38.1777 -38.1682 -38.1466 -38.1383 -38.1359 -38.1320
   -38.1127 -38.1009 -38.0983 -38.0890 -38.0803 -38.0646 -38.0609 -38.0505
   -38.0393 -38.0316 -38.0278 -38.0072 -37.9801 -37.9777 -37.9293 -37.9195
   -37.8973 -37.8871 -37.8862 -37.8812   8.6433  10.6242  10.7638  11.4055
    11.6197  11.6808  11.6834  11.7229  11.7815  11.8555  11.8990  11.9303
    12.1971  12.2182  12.5402  12.5858  12.6098  12.6989  12.8028  12.8414
    12.8559  12.8872  12.9113  12.9416  13.0041  13.0143  13.1838  13.3214
    13.3344  13.3671  13.4650  13.6008  13.6094  13.6927  13.7070  13.7259
    13.7665  13.9234  13.9559  14.0601  14.1242  14.2328  14.3084  14.3239
    14.3915  14.3999  14.4144  14.4781  14.5120  14.5912  14.6015  14.6433
    14.6819  14.7815  14.7981  14.8434  14.9086  14.9964  15.0000  15.0263
    15.0593  15.0910  15.1224  15.1363  15.1761  15.2298  15.3253  15.3583
    15.3749  15.3869  15.4172  15.4753  15.4975  15.5390  15.5685  15.6873
    15.7737  15.8491  16.0798  16.5311  16.5591  17.5995  17.6769  17.8219
    17.9898

          k = 0.0000 0.2500-0.5000 (  6452 PWs)   bands (ev):

   -88.0351 -72.2335 -72.2250 -72.2197 -72.2023 -72.1925 -72.1889 -72.1811
   -72.1496 -72.1005 -72.0993 -72.0965 -71.9909 -71.9890 -71.9873 -48.2420
   -48.2357 -48.1303 -38.3756 -38.3535 -38.3459 -38.3208 -38.3093 -38.2988
   -38.2886 -38.2873 -38.2808 -38.2694 -38.2571 -38.2444 -38.2266 -38.2236
   -38.2165 -38.1982 -38.1768 -38.1699 -38.1478 -38.1395 -38.1329 -38.1210
   -38.1082 -38.0990 -38.0914 -38.0858 -38.0757 -38.0661 -38.0607 -38.0505
   -38.0439 -38.0293 -38.0240 -37.9943 -37.9855 -37.9779 -37.9193 -37.9103
   -37.8971 -37.8931 -37.8850 -37.8785   9.3257   9.6775  10.9893  11.2632
    11.7585  11.8748  11.9374  11.9629  11.9698  11.9990  12.0417  12.0779
    12.1227  12.2309  12.3501  12.3927  12.5475  12.7089  12.7617  12.7705
    12.8832  12.9473  13.0104  13.0556  13.1251  13.1519  13.2149  13.2461
    13.3512  13.4005  13.5025  13.5127  13.5351  13.6010  13.6351  13.6591
    13.6822  13.7202  13.7602  13.8427  13.9633  14.0039  14.0359  14.0831
    14.2293  14.2681  14.4319  14.5001  14.5419  14.6065  14.6837  14.7008
    14.7262  14.7566  14.7674  14.8083  14.8573  14.8935  14.9702  14.9887
    15.0378  15.0531  15.0949  15.1255  15.1499  15.2053  15.2239  15.2370
    15.2911  15.3126  15.3525  15.4067  15.4591  15.4666  15.4912  15.7037
    15.7881  15.9562  16.0822  17.0140  17.0779  17.1466  17.2408  18.7030
    18.8529

          k = 0.0000-0.5000-0.5000 (  6496 PWs)   bands (ev):

   -88.0352 -72.2296 -72.2266 -72.2221 -72.2034 -72.1922 -72.1876 -72.1820
   -72.1495 -72.1007 -72.0994 -72.0966 -71.9895 -71.9891 -71.9887 -48.2534
   -48.2454 -48.1407 -38.3736 -38.3506 -38.3364 -38.3234 -38.3109 -38.3066
   -38.2940 -38.2873 -38.2855 -38.2737 -38.2682 -38.2551 -38.2260 -38.2240
   -38.2151 -38.1886 -38.1782 -38.1492 -38.1416 -38.1408 -38.1358 -38.1156
   -38.1114 -38.1001 -38.0978 -38.0894 -38.0892 -38.0799 -38.0721 -38.0664
   -38.0552 -38.0336 -38.0306 -37.9866 -37.9862 -37.9822 -37.9141 -37.9022
   -37.9004 -37.8929 -37.8895 -37.8750  10.0143  10.1254  10.1327  10.7305
    12.0205  12.0369  12.0469  12.1178  12.1574  12.2203  12.2290  12.2576
    12.2943  12.3265  12.4913  12.5704  12.5767  12.6002  12.7125  12.7163
    12.8068  12.8102  12.8635  12.9404  12.9421  13.0289  13.0519  13.2555
    13.3282  13.3365  13.3729  13.4157  13.4799  13.5220  13.5283  13.6078
    13.6273  13.6281  13.6445  13.7229  13.7512  13.7730  13.9942  14.0476
    14.1183  14.2124  14.3471  14.4539  14.6195  14.6503  14.6637  14.7103
    14.7252  14.7450  14.7825  14.8217  14.8568  14.8654  14.9050  14.9154
    14.9189  14.9228  14.9256  15.0228  15.0596  15.0750  15.0784  15.0928
    15.1603  15.2021  15.2715  15.2794  15.3363  15.3731  15.3876  15.7335
    15.8368  16.0447  16.1882  17.7728  17.8617  17.9796  18.1086  18.2564
    18.2687

          k = 0.2500 0.2500 0.2500 (  6493 PWs)   bands (ev):

   -88.0351 -72.2338 -72.2225 -72.2225 -72.2023 -72.1903 -72.1903 -72.1817
   -72.1497 -72.0994 -72.0994 -72.0978 -71.9902 -71.9902 -71.9870 -48.2488
   -48.2488 -48.1401 -38.3793 -38.3520 -38.3520 -38.3074 -38.3074 -38.3026
   -38.3010 -38.2881 -38.2776 -38.2776 -38.2502 -38.2380 -38.2380 -38.2247
   -38.2247 -38.1935 -38.1717 -38.1621 -38.1621 -38.1309 -38.1309 -38.1292
   -38.1251 -38.1039 -38.1039 -38.0828 -38.0828 -38.0704 -38.0589 -38.0589
   -38.0283 -38.0283 -38.0282 -38.0070 -37.9800 -37.9800 -37.9156 -37.9156
   -37.9023 -37.8881 -37.8846 -37.8846   8.9337  10.8407  10.8407  11.0137
    11.5964  11.5964  11.6818  11.8862  11.8862  11.9748  12.0485  12.0485
    12.3642  12.3642  12.5436  12.5884  12.6047  12.7495  12.7495  12.8549
    12.8549  12.8858  12.9436  12.9459  12.9459  13.1219  13.1219  13.2022
    13.3117  13.3117  13.3487  13.4939  13.4939  13.5690  13.5690  13.6420
    13.6420  13.7453  13.7863  13.9381  13.9381  14.0448  14.1922  14.1922
    14.2907  14.2907  14.3558  14.5369  14.5894  14.5894  14.5967  14.7652
    14.7652  14.7750  14.8255  14.8510  14.8510  14.9340  14.9387  14.9387
    15.0714  15.0714  15.0850  15.1174  15.1174  15.1670  15.1907  15.1907
    15.2842  15.3301  15.3301  15.5739  15.5753  15.5753  15.7039  15.7039
    15.7266  15.7266  15.8441  16.5786  16.5786  16.6622  18.5227  18.5227
    18.7553

          k = 0.2500 0.2500-0.5000 (  6456 PWs)   bands (ev):

   -88.0351 -72.2312 -72.2244 -72.2223 -72.2039 -72.1904 -72.1891 -72.1820
   -72.1495 -72.1000 -72.0994 -72.0970 -71.9901 -71.9892 -71.9879 -48.2433
   -48.2375 -48.1302 -38.3719 -38.3476 -38.3412 -38.3150 -38.3074 -38.2995
   -38.2881 -38.2869 -38.2816 -38.2715 -38.2578 -38.2412 -38.2412 -38.2203
   -38.2187 -38.1824 -38.1758 -38.1690 -38.1499 -38.1459 -38.1276 -38.1242
   -38.1157 -38.1089 -38.1070 -38.0846 -38.0806 -38.0712 -38.0573 -38.0462
   -38.0342 -38.0267 -38.0211 -38.0014 -37.9892 -37.9773 -37.9170 -37.9112
   -37.8986 -37.8929 -37.8830 -37.8794   9.6023   9.9285  11.2269  11.2284
    11.3851  11.6021  12.0845  12.1294  12.1298  12.1596  12.1763  12.1947
    12.2109  12.3388  12.3768  12.4732  12.6452  12.7388  12.7795  12.8586
    12.9091  12.9377  12.9410  13.0107  13.0690  13.1097  13.1469  13.1536
    13.2227  13.2714  13.4022  13.4037  13.4356  13.4632  13.4699  13.4840
    13.5137  13.5261  13.5280  13.5664  13.7695  13.8991  13.9071  13.9765
    13.9992  14.2192  14.3849  14.4092  14.6210  14.6634  14.7215  14.7270
    14.7723  14.7870  14.8054  14.8355  14.8874  14.9123  14.9782  14.9966
    15.0321  15.0885  15.0988  15.1246  15.1628  15.1757  15.1784  15.2104
    15.2353  15.3348  15.3880  15.3960  15.5063  15.6809  15.7215  15.7640
    15.8297  15.8833  15.9148  15.9995  16.0284  17.6666  17.9951  19.2157
    19.2211

          k = 0.2500-0.5000-0.5000 (  6472 PWs)   bands (ev):

   -88.0351 -72.2281 -72.2263 -72.2223 -72.2060 -72.1901 -72.1879 -72.1828
   -72.1493 -72.1001 -72.0994 -72.0970 -71.9897 -71.9888 -71.9886 -48.2436
   -48.2430 -48.1351 -38.3665 -38.3406 -38.3315 -38.3160 -38.3079 -38.3005
   -38.2942 -38.2826 -38.2786 -38.2690 -38.2610 -38.2536 -38.2362 -38.2195
   -38.2127 -38.1837 -38.1701 -38.1557 -38.1545 -38.1441 -38.1428 -38.1353
   -38.1342 -38.1181 -38.1159 -38.0833 -38.0807 -38.0604 -38.0542 -38.0486
   -38.0313 -38.0238 -38.0231 -37.9963 -37.9889 -37.9852 -37.9149 -37.9088
   -37.9074 -37.8945 -37.8862 -37.8815  10.2746  10.3928  10.4042  10.9302
    11.6985  11.8798  11.9028  12.2203  12.2389  12.2519  12.2772  12.4846
    12.5269  12.5449  12.5575  12.6238  12.6320  12.7107  12.7319  12.7574
    12.7887  12.8874  12.8991  12.9101  12.9369  12.9973  13.0121  13.1275
    13.1641  13.1795  13.1857  13.1946  13.2521  13.2900  13.3278  13.3457
    13.3776  13.3914  13.4685  13.4952  13.5322  13.5782  13.6957  13.7111
    13.8790  14.2500  14.2645  14.2876  14.7117  14.7348  14.8073  14.8672
    14.8950  14.9050  14.9475  14.9531  14.9700  14.9921  15.0223  15.0498
    15.0637  15.0710  15.0774  15.0838  15.1108  15.1474  15.1590  15.2146
    15.2222  15.2449  15.3012  15.3700  15.4085  15.4346  15.4429  15.6419
    15.7071  15.8074  15.9204  16.6176  16.7441  16.7564  17.0028  20.1393
    20.2874

          k =-0.5000-0.5000-0.5000 (  6488 PWs)   bands (ev):

   -88.0351 -72.2261 -72.2261 -72.2231 -72.2085 -72.1881 -72.1881 -72.1839
   -72.1491 -72.0993 -72.0993 -72.0977 -71.9898 -71.9886 -71.9886 -48.2453
   -48.2453 -48.1372 -38.3612 -38.3252 -38.3252 -38.3104 -38.3037 -38.3037
   -38.3006 -38.2686 -38.2686 -38.2662 -38.2526 -38.2518 -38.2518 -38.2137
   -38.2137 -38.1884 -38.1605 -38.1605 -38.1595 -38.1532 -38.1526 -38.1526
   -38.1454 -38.1306 -38.1306 -38.0814 -38.0814 -38.0476 -38.0327 -38.0327
   -38.0214 -38.0166 -38.0166 -38.0068 -37.9966 -37.9966 -37.9137 -37.9137
   -37.9132 -37.9011 -37.8899 -37.8899  10.8818  11.0047  11.0368  11.0368
    11.2087  11.2288  11.2288  12.2226  12.6219  12.6219  12.6395  12.6395
    12.6459  12.6538  12.6538  12.6657  12.7236  12.7236  12.7524  12.8297
    12.8780  12.8780  12.9212  12.9212  12.9997  12.9997  13.0099  13.0297
    13.0368  13.0368  13.0721  13.0721  13.0747  13.0809  13.0941  13.0941
    13.1384  13.1487  13.1487  13.1754  13.1754  13.1842  13.3037  13.7338
    13.7338  14.1942  14.2324  14.2324  14.7515  14.7515  14.9263  14.9342
    14.9342  14.9642  14.9642  14.9696  15.0133  15.0133  15.0292  15.0523
    15.0523  15.0729  15.1774  15.1774  15.3252  15.3275  15.3275  15.3704
    15.4032  15.4032  15.4430  15.4430  15.4688  15.4894  15.4894  15.7415
    15.7415  15.7842  15.9431  16.0294  16.0547  16.0547  16.0636  22.5387
    22.5390

          k =-0.2500 0.0000 0.2500 (  6500 PWs)   bands (ev):

   -88.0352 -72.2371 -72.2208 -72.2199 -72.2019 -72.1927 -72.1908 -72.1802
   -72.1497 -72.1005 -72.0994 -72.0967 -71.9910 -71.9906 -71.9858 -48.2530
   -48.2496 -48.1394 -38.3805 -38.3607 -38.3593 -38.3234 -38.3191 -38.3054
   -38.2977 -38.2788 -38.2745 -38.2686 -38.2516 -38.2387 -38.2347 -38.2237
   -38.2122 -38.2058 -38.1794 -38.1537 -38.1482 -38.1396 -38.1275 -38.1165
   -38.1104 -38.1092 -38.0934 -38.0882 -38.0763 -38.0664 -38.0646 -38.0532
   -38.0456 -38.0374 -38.0277 -38.0091 -37.9842 -37.9786 -37.9327 -37.9241
   -37.8929 -37.8885 -37.8829 -37.8746   8.6434  10.5939  10.7978  11.3990
    11.6221  11.6790  11.6989  11.7461  11.7490  11.8659  11.8875  11.9277
    12.1830  12.2190  12.5424  12.5929  12.6031  12.7010  12.7830  12.8478
    12.8563  12.8861  12.9200  12.9672  13.0060  13.0181  13.1802  13.3311
    13.3394  13.3853  13.4793  13.5294  13.6658  13.6751  13.7099  13.7222
    13.7547  13.9028  13.9450  14.0714  14.1025  14.2094  14.3283  14.3619
    14.3919  14.4052  14.4400  14.4651  14.5058  14.5514  14.5796  14.6523
    14.6775  14.7839  14.8411  14.8998  14.9176  14.9497  15.0160  15.0594
    15.0911  15.0949  15.1189  15.1411  15.1520  15.1936  15.2933  15.3392
    15.3566  15.3995  15.4401  15.4920  15.5139  15.5251  15.5966  15.6057
    15.7354  15.7654  16.2132  16.5347  16.5719  17.5024  17.6771  17.8300
    18.0693

          k = 0.2500-0.2500 0.2500 (  6493 PWs)   bands (ev):

   -88.0351 -72.2350 -72.2225 -72.2197 -72.2038 -72.1912 -72.1903 -72.1809
   -72.1496 -72.1006 -72.0994 -72.0966 -71.9907 -71.9902 -71.9865 -48.2487
   -48.2484 -48.1405 -38.3758 -38.3547 -38.3506 -38.3203 -38.3120 -38.2988
   -38.2960 -38.2813 -38.2784 -38.2773 -38.2551 -38.2395 -38.2366 -38.2293
   -38.2164 -38.1889 -38.1809 -38.1581 -38.1551 -38.1373 -38.1333 -38.1289
   -38.1280 -38.1045 -38.0993 -38.0826 -38.0801 -38.0639 -38.0570 -38.0553
   -38.0316 -38.0304 -38.0280 -38.0079 -37.9856 -37.9785 -37.9278 -37.9145
   -37.8966 -37.8930 -37.8816 -37.8797   8.9339  10.7978  10.8412  11.0614
    11.5599  11.5867  11.7407  11.8712  11.8994  11.9987  12.0322  12.0463
    12.3433  12.3605  12.5386  12.5658  12.6104  12.7585  12.7670  12.8493
    12.8641  12.8894  12.9233  12.9719  12.9727  13.1081  13.1134  13.2109
    13.3024  13.3261  13.3434  13.4660  13.5207  13.5626  13.5679  13.6681
    13.6772  13.7334  13.7612  13.9350  13.9794  14.0470  14.1526  14.1859
    14.2457  14.2657  14.3951  14.4385  14.4935  14.5584  14.6094  14.7250
    14.7677  14.8055  14.8367  14.8907  14.9273  14.9667  14.9819  15.0079
    15.0262  15.0527  15.0760  15.1021  15.1068  15.1292  15.1601  15.1919
    15.3476  15.3836  15.3933  15.5168  15.5636  15.5711  15.6025  15.6947
    15.7483  15.8490  15.8500  16.5593  16.5604  16.6765  18.4697  18.5241
    18.8133

          k = 0.2500-0.2500-0.5000 (  6456 PWs)   bands (ev):

   -88.0351 -72.2319 -72.2253 -72.2196 -72.2050 -72.1912 -72.1886 -72.1816
   -72.1494 -72.1006 -72.0993 -72.0965 -71.9906 -71.9889 -71.9876 -48.2395
   -48.2389 -48.1328 -38.3708 -38.3467 -38.3417 -38.3205 -38.3070 -38.2961
   -38.2898 -38.2873 -38.2816 -38.2682 -38.2558 -38.2447 -38.2333 -38.2217
   -38.2195 -38.1846 -38.1725 -38.1695 -38.1533 -38.1459 -38.1362 -38.1304
   -38.1240 -38.1096 -38.0956 -38.0829 -38.0808 -38.0689 -38.0530 -38.0485
   -38.0315 -38.0280 -38.0121 -37.9983 -37.9865 -37.9834 -37.9171 -37.9103
   -37.9009 -37.8930 -37.8850 -37.8813   9.6018   9.9294  11.1892  11.2653
    11.3613  11.6389  12.0706  12.1313  12.1408  12.1496  12.1899  12.1969
    12.2068  12.3359  12.3808  12.4741  12.6452  12.7547  12.7627  12.8575
    12.8952  12.9177  12.9474  13.0369  13.0401  13.1284  13.1412  13.1600
    13.2662  13.2871  13.4035  13.4131  13.4316  13.4429  13.4622  13.4873
    13.5030  13.5191  13.5285  13.5368  13.7725  13.8857  13.9224  13.9759
    13.9875  14.2206  14.3788  14.4049  14.5958  14.6461  14.6901  14.7475
    14.7584  14.7863  14.7939  14.8376  14.8693  14.9194  14.9662  15.0204
    15.0279  15.0611  15.0846  15.1553  15.1634  15.1779  15.2000  15.2271
    15.2458  15.3423  15.4043  15.4463  15.5371  15.5890  15.7354  15.8285
    15.8454  15.8754  15.9280  15.9931  16.0274  17.6429  17.9729  19.1565
    19.2388

 ------ SPIN DOWN ----------


          k = 0.0000 0.0000 0.0000 (  6451 PWs)   bands (ev):

   -86.7066 -68.9535 -68.9329 -68.9329 -68.8772 -68.8655 -68.8655 -68.8514
   -68.8484 -68.8484 -68.8427 -68.8369 -68.8369 -68.8206 -68.7955 -46.9019
   -46.9019 -46.8285 -35.2125 -35.2019 -35.2019 -35.1759 -35.1585 -35.1585
   -35.0845 -35.0845 -35.0815 -35.0244 -35.0221 -35.0221 -35.0089 -35.0089
   -35.0004 -34.9984 -34.9984 -34.9973 -34.9793 -34.9793 -34.9677 -34.9621
   -34.9621 -34.9589 -34.9446 -34.9435 -34.9318 -34.9318 -34.9274 -34.9274
   -34.9167 -34.9167 -34.8939 -34.8238 -34.8120 -34.8120 -34.7990 -34.7990
   -34.7957 -34.7887 -34.7887 -34.7830   8.1922  12.1568  12.2022  12.2022
    12.3243  12.3243  12.4251  12.8996  12.8996  12.9656  12.9888  12.9888
    13.6819  13.6819  13.7382  14.3071  14.3071  14.4200  14.7278  14.7278
    14.7457  14.8849  14.8849  14.9734  15.1795  15.1795  15.3051  15.3876
    15.3876  15.6717  15.7102  15.8922  15.9745  15.9745  16.3296  16.3296
    16.3862  16.3862  16.4387  16.5162  16.5162  16.5191  16.5303  16.5972
    16.5972  16.6558  16.6558  16.7196  17.0199  17.0199  17.1226  17.2399
    17.2399  17.3104  17.3104  17.3246  17.4868  17.4868  17.5881  17.9643
    18.0235  18.0235  18.0685  18.0996  18.0996  18.2379  18.2379  18.3678
    18.3678  18.3851  18.3869  18.3881  18.3881  18.4563  18.5883  18.5883
    18.7823  18.7823  18.8365  18.8365  18.8899  18.8899  18.9220  18.9831
    19.0778

          k = 0.0000 0.0000 0.2500 (  6495 PWs)   bands (ev):

   -86.7066 -68.9508 -68.9354 -68.9329 -68.8769 -68.8686 -68.8653 -68.8535
   -68.8502 -68.8487 -68.8411 -68.8370 -68.8314 -68.8194 -68.7977 -46.9147
   -46.9104 -46.8389 -35.2062 -35.1963 -35.1952 -35.1686 -35.1586 -35.1568
   -35.0945 -35.0944 -35.0818 -35.0659 -35.0658 -35.0521 -35.0418 -35.0243
   -35.0209 -35.0047 -34.9835 -34.9806 -34.9775 -34.9686 -34.9578 -34.9532
   -34.9403 -34.9355 -34.9317 -34.9301 -34.9182 -34.9115 -34.9112 -34.9063
   -34.9053 -34.8967 -34.8853 -34.8334 -34.8268 -34.8225 -34.8172 -34.8128
   -34.8111 -34.8068 -34.8067 -34.8022   8.4924  10.7775  12.3527  12.3823
    12.4811  12.4933  12.9083  12.9254  12.9642  12.9730  13.1621  13.2943
    13.7181  13.8105  13.8903  14.2137  14.3237  14.3916  14.5403  14.7844
    14.7918  14.8653  14.9041  15.0076  15.0452  15.0703  15.3207  15.3279
    15.4015  15.4940  15.6197  15.8082  15.8476  15.8929  15.9973  16.0602
    16.1037  16.1520  16.1534  16.1979  16.2576  16.3214  16.3669  16.5062
    16.5429  16.6372  16.7551  16.7658  16.8805  16.9124  17.0692  17.1932
    17.2094  17.2836  17.3740  17.6384  17.6896  17.7334  17.8237  17.8965
    17.9109  17.9747  18.0484  18.0833  18.1524  18.1685  18.2902  18.3564
    18.3642  18.3810  18.4063  18.4935  18.5331  18.6180  18.6353  18.6770
    18.7292  18.7527  18.8369  18.8504  18.8679  18.9049  18.9439  18.9474
    18.9801

          k = 0.0000 0.0000-0.5000 (  6480 PWs)   bands (ev):

   -86.7066 -68.9462 -68.9397 -68.9329 -68.8760 -68.8721 -68.8651 -68.8545
   -68.8504 -68.8489 -68.8409 -68.8370 -68.8278 -68.8164 -68.8009 -46.9147
   -46.9060 -46.8360 -35.1670 -35.1634 -35.1588 -35.1555 -35.1541 -35.1442
   -35.1435 -35.1299 -35.1108 -35.0964 -35.0901 -35.0715 -35.0516 -35.0339
   -35.0269 -35.0112 -34.9958 -34.9868 -34.9799 -34.9690 -34.9628 -34.9551
   -34.9371 -34.9185 -34.9093 -34.9077 -34.9012 -34.8985 -34.8903 -34.8775
   -34.8710 -34.8708 -34.8604 -34.8444 -34.8332 -34.8324 -34.8314 -34.8274
   -34.8264 -34.8224 -34.8159 -34.8154   9.2114   9.6072  12.5471  12.6176
    12.6484  12.7321  12.8503  12.8520  12.9320  13.1801  13.4900  13.5780
    13.7073  13.9596  13.9782  14.0646  14.0785  14.3157  14.4598  14.5949
    14.7957  14.8219  14.9429  15.0588  15.1626  15.2892  15.3946  15.4322
    15.4369  15.4638  15.4804  15.4960  15.5035  15.5127  15.5528  15.7331
    15.8418  15.8590  15.9445  15.9467  16.0487  16.1713  16.2518  16.3304
    16.3589  16.4775  16.6535  16.9475  17.0784  17.2657  17.3604  17.4254
    17.4897  17.4912  17.5997  17.6272  17.6695  17.7987  17.8009  17.8343
    17.8799  17.9374  18.0264  18.2205  18.2336  18.2985  18.3251  18.3473
    18.3709  18.3787  18.3889  18.4041  18.5043  18.5499  18.5642  18.6018
    18.6541  18.7102  18.7678  18.7966  18.8425  18.9361  19.0084  19.0244
    19.0421

          k = 0.0000 0.2500 0.2500 (  6500 PWs)   bands (ev):

   -86.7066 -68.9480 -68.9367 -68.9339 -68.8766 -68.8681 -68.8674 -68.8551
   -68.8515 -68.8510 -68.8392 -68.8345 -68.8276 -68.8197 -68.7995 -46.9153
   -46.9096 -46.8425 -35.1984 -35.1821 -35.1735 -35.1567 -35.1518 -35.1498
   -35.1205 -35.1151 -35.1051 -35.0840 -35.0751 -35.0504 -35.0435 -35.0234
   -35.0057 -35.0032 -35.0004 -34.9827 -34.9806 -34.9733 -34.9671 -34.9561
   -34.9530 -34.9505 -34.9379 -34.9304 -34.9107 -34.9082 -34.8943 -34.8928
   -34.8841 -34.8629 -34.8604 -34.8506 -34.8327 -34.8270 -34.8261 -34.8187
   -34.8178 -34.8114 -34.8024 -34.7985   8.7930  10.9459  11.0780  12.4053
    12.6055  12.6237  13.0447  13.1351  13.1805  13.2319  13.3638  13.4818
    13.8191  13.8711  14.0602  14.1782  14.3372  14.3557  14.5376  14.6795
    14.7891  14.8190  14.8871  14.9286  15.0209  15.0410  15.1299  15.2274
    15.3738  15.4626  15.5023  15.6380  15.6804  15.7389  15.7771  15.8445
    15.8907  15.9212  16.0147  16.1272  16.1351  16.2127  16.2271  16.3549
    16.4751  16.6062  16.6601  16.8293  16.9353  17.1126  17.1175  17.1576
    17.3146  17.3338  17.4092  17.5161  17.6254  17.7344  17.8401  17.9758
    17.9905  18.0567  18.0908  18.1041  18.1382  18.2028  18.2143  18.2750
    18.2766  18.3483  18.3837  18.3863  18.4199  18.4235  18.4748  18.5483
    18.5718  18.7128  18.8639  18.9972  19.0357  19.5272  19.6299  19.7149
    19.7264

          k = 0.0000 0.2500-0.5000 (  6452 PWs)   bands (ev):

   -86.7066 -68.9442 -68.9393 -68.9344 -68.8754 -68.8717 -68.8670 -68.8562
   -68.8523 -68.8516 -68.8385 -68.8326 -68.8251 -68.8181 -68.8019 -46.9056
   -46.8996 -46.8288 -35.1707 -35.1649 -35.1581 -35.1550 -35.1517 -35.1445
   -35.1391 -35.1199 -35.1069 -35.0811 -35.0782 -35.0565 -35.0457 -35.0358
   -35.0258 -35.0014 -34.9975 -34.9873 -34.9781 -34.9754 -34.9720 -34.9614
   -34.9412 -34.9395 -34.9343 -34.9232 -34.9161 -34.9043 -34.8932 -34.8794
   -34.8658 -34.8530 -34.8450 -34.8367 -34.8348 -34.8294 -34.8272 -34.8248
   -34.8151 -34.8120 -34.8076 -34.8042   9.4963   9.8685  11.4785  11.8664
    12.8088  12.9069  13.0790  13.2127  13.4706  13.5261  13.5893  13.6653
    13.7957  13.9685  14.0195  14.0741  14.1896  14.3747  14.4690  14.6222
    14.7109  14.8229  14.8658  14.9830  15.0339  15.0814  15.1991  15.2295
    15.2791  15.2931  15.4246  15.4537  15.4840  15.5222  15.5846  15.6455
    15.7155  15.7689  15.8355  15.8808  15.9986  16.0490  16.0979  16.3748
    16.4058  16.4733  16.8053  16.8966  16.9887  17.1139  17.2527  17.4200
    17.4382  17.4952  17.5415  17.5632  17.5934  17.6683  17.7368  17.8378
    17.8842  17.9321  18.0154  18.0615  18.1391  18.2204  18.2348  18.2688
    18.3061  18.3362  18.3745  18.3826  18.4155  18.4203  18.4418  18.5571
    18.6478  18.7460  18.8565  19.2784  19.3100  19.3408  19.3999  20.2362
    20.3799

          k = 0.0000-0.5000-0.5000 (  6496 PWs)   bands (ev):

   -86.7066 -68.9403 -68.9398 -68.9372 -68.8745 -68.8706 -68.8700 -68.8588
   -68.8531 -68.8525 -68.8380 -68.8267 -68.8231 -68.8210 -68.8032 -46.9169
   -46.9089 -46.8389 -35.1726 -35.1604 -35.1590 -35.1577 -35.1568 -35.1502
   -35.1401 -35.1177 -35.1075 -35.0718 -35.0601 -35.0518 -35.0221 -35.0192
   -35.0157 -35.0042 -34.9990 -34.9947 -34.9895 -34.9853 -34.9828 -34.9763
   -34.9680 -34.9664 -34.9502 -34.9495 -34.9427 -34.9089 -34.8813 -34.8759
   -34.8631 -34.8503 -34.8443 -34.8369 -34.8351 -34.8307 -34.8296 -34.8259
   -34.8079 -34.8054 -34.8019 -34.7968  10.2235  10.3671  10.4141  11.0457
    13.2321  13.2427  13.3055  13.4507  13.4902  13.5821  13.6961  13.7581
    13.8843  13.9590  14.0311  14.1352  14.3899  14.4167  14.4199  14.4812
    14.6617  14.6789  14.7393  14.7982  14.8411  14.9944  15.0281  15.0925
    15.2301  15.2515  15.2999  15.3549  15.3679  15.4359  15.5393  15.5773
    15.5905  15.6983  15.7755  15.9684  15.9783  15.9854  16.0132  16.3537
    16.3907  16.6023  16.6196  16.8428  16.9019  16.9747  17.1631  17.2530
    17.2745  17.4865  17.6282  17.6354  17.7174  17.7408  17.7929  17.7987
    17.8234  17.8609  17.9162  17.9668  18.0333  18.1087  18.1321  18.1934
    18.2098  18.2537  18.2897  18.2955  18.3338  18.3893  18.4185  18.6046
    18.7548  18.8122  18.9867  19.7419  19.8744  20.0925  20.1620  20.1804
    20.2533

          k = 0.2500 0.2500 0.2500 (  6493 PWs)   bands (ev):

   -86.7066 -68.9451 -68.9365 -68.9365 -68.8764 -68.8687 -68.8687 -68.8565
   -68.8513 -68.8513 -68.8416 -68.8274 -68.8274 -68.8207 -68.8008 -46.9123
   -46.9123 -46.8384 -35.1871 -35.1601 -35.1601 -35.1462 -35.1459 -35.1459
   -35.1295 -35.1262 -35.1262 -35.0704 -35.0704 -35.0524 -35.0524 -35.0394
   -35.0339 -35.0153 -34.9950 -34.9950 -34.9789 -34.9789 -34.9718 -34.9424
   -34.9424 -34.9389 -34.9250 -34.9250 -34.9156 -34.9154 -34.9154 -34.8978
   -34.8760 -34.8512 -34.8463 -34.8463 -34.8284 -34.8284 -34.8255 -34.8186
   -34.8186 -34.8082 -34.8082 -34.8063   9.0870  11.1928  11.1928  11.3739
    12.6014  12.6014  12.7877  13.4111  13.4111  13.4930  13.6310  13.6310
    14.0218  14.0218  14.0732  14.1643  14.3726  14.3726  14.4004  14.7367
    14.7636  14.7636  14.8480  14.8480  15.0496  15.0512  15.0513  15.0513
    15.3657  15.3657  15.4550  15.4860  15.4860  15.6236  15.6236  15.6389
    15.6771  15.7486  15.7486  16.0147  16.0147  16.0601  16.0601  16.2199
    16.4972  16.6658  16.6658  16.9641  17.1398  17.1398  17.2441  17.2441
    17.3109  17.3210  17.5176  17.5733  17.5733  17.8125  17.8360  17.8360
    17.9319  18.0430  18.0430  18.1524  18.2032  18.2032  18.2504  18.2504
    18.2963  18.2963  18.3168  18.3621  18.3621  18.4867  18.4867  18.5467
    18.6007  18.6007  18.6451  18.9920  18.9920  19.0284  20.2505  20.2505
    20.4027

          k = 0.2500 0.2500-0.5000 (  6456 PWs)   bands (ev):

   -86.7066 -68.9424 -68.9385 -68.9362 -68.8752 -68.8724 -68.8692 -68.8566
   -68.8517 -68.8511 -68.8413 -68.8272 -68.8247 -68.8194 -68.8025 -46.9069
   -46.9013 -46.8287 -35.1667 -35.1632 -35.1607 -35.1513 -35.1403 -35.1333
   -35.1212 -35.1184 -35.1076 -35.0772 -35.0745 -35.0582 -35.0493 -35.0335
   -35.0254 -35.0215 -35.0170 -35.0029 -34.9895 -34.9851 -34.9827 -34.9495
   -34.9482 -34.9432 -34.9268 -34.9156 -34.9049 -34.9020 -34.8879 -34.8820
   -34.8745 -34.8516 -34.8511 -34.8412 -34.8282 -34.8276 -34.8215 -34.8214
   -34.8157 -34.8147 -34.8093 -34.8055   9.7807  10.1318  11.7282  11.7296
    11.9739  12.2483  13.1367  13.5699  13.6089  13.6968  13.7323  13.7769
    13.9468  14.0164  14.1175  14.2401  14.3176  14.3807  14.5410  14.6343
    14.6608  14.8360  14.8576  14.9005  14.9789  15.0103  15.0819  15.1048
    15.1484  15.1949  15.3547  15.3717  15.3859  15.4842  15.5052  15.5607
    15.5637  15.6498  15.6866  15.7951  15.8738  15.9072  15.9205  16.1679
    16.3937  16.5375  16.7229  16.8323  16.9961  17.0792  17.3482  17.3839
    17.4746  17.5981  17.6663  17.7006  17.7258  17.7466  17.8354  17.9251
    17.9565  17.9805  18.0694  18.1366  18.1385  18.1766  18.2314  18.2755
    18.2884  18.3107  18.3314  18.3581  18.3713  18.4227  18.4609  18.4654
    18.5663  18.5735  18.6087  18.6857  18.7164  19.7797  20.0750  20.7911
    20.8247

          k = 0.2500-0.5000-0.5000 (  6472 PWs)   bands (ev):

   -86.7066 -68.9399 -68.9396 -68.9367 -68.8750 -68.8728 -68.8721 -68.8562
   -68.8522 -68.8508 -68.8415 -68.8254 -68.8223 -68.8211 -68.8034 -46.9073
   -46.9066 -46.8336 -35.1588 -35.1513 -35.1486 -35.1413 -35.1407 -35.1336
   -35.1225 -35.1104 -35.1018 -35.0660 -35.0627 -35.0579 -35.0479 -35.0458
   -35.0447 -35.0344 -35.0340 -35.0318 -35.0047 -34.9908 -34.9865 -34.9445
   -34.9382 -34.9366 -34.9183 -34.9177 -34.9136 -34.8975 -34.8813 -34.8810
   -34.8654 -34.8532 -34.8482 -34.8447 -34.8333 -34.8300 -34.8284 -34.8246
   -34.8165 -34.8145 -34.8135 -34.8093  10.4914  10.6404  10.6905  11.2521
    12.2856  12.4965  12.5244  13.2414  13.8047  13.9388  13.9913  14.0211
    14.0761  14.1767  14.2350  14.3450  14.4369  14.4688  14.5003  14.5883
    14.6192  14.7385  14.7834  14.8354  14.8775  14.9700  15.0033  15.0653
    15.1452  15.1935  15.2516  15.2546  15.2985  15.3632  15.3772  15.4370
    15.4540  15.6353  15.6358  15.7115  15.7210  15.7823  15.7881  15.8471
    16.0446  16.5948  16.6508  16.6950  17.0960  17.1365  17.4669  17.4784
    17.6377  17.7663  17.7930  17.8019  17.8829  17.8898  17.8982  17.9347
    17.9359  17.9741  17.9790  18.0385  18.0658  18.1180  18.1646  18.1670
    18.1809  18.2084  18.2791  18.2847  18.3034  18.3220  18.3677  18.4801
    18.5300  18.5920  18.6423  19.0483  19.1424  19.1491  19.3294  21.6589
    21.8207

          k =-0.5000-0.5000-0.5000 (  6488 PWs)   bands (ev):

   -86.7066 -68.9394 -68.9394 -68.9362 -68.8762 -68.8740 -68.8740 -68.8543
   -68.8493 -68.8493 -68.8462 -68.8247 -68.8211 -68.8211 -68.8036 -46.9089
   -46.9089 -46.8356 -35.1355 -35.1355 -35.1243 -35.1195 -35.1195 -35.1159
   -35.1050 -35.0945 -35.0945 -35.0830 -35.0830 -35.0763 -35.0686 -35.0686
   -35.0664 -35.0607 -35.0607 -35.0561 -35.0149 -34.9868 -34.9868 -34.9374
   -34.9374 -34.9188 -34.8888 -34.8856 -34.8856 -34.8847 -34.8847 -34.8755
   -34.8678 -34.8544 -34.8544 -34.8486 -34.8392 -34.8392 -34.8366 -34.8322
   -34.8322 -34.8319 -34.8220 -34.8220  11.1262  11.2954  11.3499  11.3499
    11.5383  11.5929  11.5929  12.7507  14.0114  14.0114  14.1650  14.1650
    14.2411  14.5497  14.5540  14.5540  14.5700  14.5700  14.6389  14.6701
    14.6701  14.8272  14.8601  14.8601  14.9136  15.0849  15.0849  15.1367
    15.1642  15.1642  15.1865  15.2011  15.2012  15.2012  15.2344  15.2344
    15.2567  15.2606  15.2606  15.3058  15.4564  15.4564  15.4988  15.7932
    15.7932  16.5344  16.6680  16.6680  17.2269  17.2269  17.5854  17.5854
    17.8156  18.0523  18.0698  18.0698  18.0754  18.0754  18.0983  18.0983
    18.1147  18.1147  18.1185  18.1215  18.1342  18.1369  18.1369  18.1595
    18.1595  18.1605  18.1780  18.1780  18.2017  18.2964  18.2964  18.3585
    18.3585  18.3962  18.4962  18.6053  18.6053  18.6309  18.6819  23.6294
    23.6887

          k =-0.2500 0.0000 0.2500 (  6500 PWs)   bands (ev):

   -86.7066 -68.9486 -68.9353 -68.9345 -68.8762 -68.8700 -68.8665 -68.8545
   -68.8523 -68.8505 -68.8389 -68.8334 -68.8297 -68.8187 -68.7995 -46.9164
   -46.9131 -46.8378 -35.1943 -35.1887 -35.1864 -35.1654 -35.1481 -35.1471
   -35.1178 -35.1137 -35.0884 -35.0696 -35.0644 -35.0526 -35.0408 -35.0241
   -35.0162 -35.0029 -34.9912 -34.9881 -34.9825 -34.9795 -34.9744 -34.9702
   -34.9591 -34.9463 -34.9311 -34.9218 -34.9185 -34.9129 -34.8999 -34.8950
   -34.8850 -34.8610 -34.8577 -34.8456 -34.8333 -34.8268 -34.8258 -34.8186
   -34.8133 -34.8072 -34.8058 -34.7979   8.7946  10.8713  11.1582  12.3984
    12.5990  12.6190  13.0692  13.1588  13.1636  13.3019  13.3312  13.4443
    13.7978  13.8729  13.9882  14.1698  14.3125  14.4492  14.5218  14.7277
    14.7578  14.8008  14.8763  14.9106  15.0011  15.1121  15.1696  15.3228
    15.3829  15.4481  15.5039  15.5929  15.6341  15.7178  15.7684  15.8147
    15.9158  15.9302  16.0065  16.1104  16.1404  16.1997  16.3134  16.4113
    16.4724  16.4859  16.7015  16.8256  16.8947  16.9507  17.1238  17.2327
    17.2757  17.3407  17.4150  17.6164  17.6998  17.7867  17.8777  17.9259
    17.9418  18.0051  18.0801  18.1120  18.1341  18.2070  18.2099  18.2571
    18.2750  18.3139  18.3637  18.3859  18.4321  18.4735  18.4922  18.5276
    18.5565  18.6301  19.0013  19.0135  19.0491  19.4237  19.5200  19.7279
    19.8507

          k = 0.2500-0.2500 0.2500 (  6493 PWs)   bands (ev):

   -86.7066 -68.9465 -68.9365 -68.9347 -68.8759 -68.8707 -68.8687 -68.8545
   -68.8528 -68.8513 -68.8393 -68.8308 -68.8274 -68.8187 -68.8010 -46.9123
   -46.9119 -46.8388 -35.1805 -35.1749 -35.1729 -35.1545 -35.1455 -35.1423
   -35.1299 -35.1142 -35.0894 -35.0729 -35.0628 -35.0589 -35.0435 -35.0385
   -35.0311 -35.0256 -35.0168 -34.9984 -34.9974 -34.9806 -34.9747 -34.9415
   -34.9408 -34.9314 -34.9234 -34.9204 -34.9150 -34.9094 -34.9065 -34.8998
   -34.8783 -34.8572 -34.8468 -34.8450 -34.8327 -34.8266 -34.8213 -34.8172
   -34.8140 -34.8106 -34.8096 -34.8080   9.0902  11.0937  11.1936  11.4828
    12.5516  12.5888  12.8451  13.4391  13.4920  13.5290  13.6085  13.6161
    13.9220  13.9356  14.0358  14.2186  14.2926  14.3490  14.5099  14.6090
    14.7824  14.8210  14.8342  14.9251  14.9598  15.0456  15.1513  15.2733
    15.3110  15.3247  15.3921  15.4603  15.5200  15.5600  15.6096  15.7158
    15.7561  15.7979  15.8461  15.8796  16.0045  16.0235  16.0708  16.2417
    16.5040  16.5186  16.6431  16.8320  16.8798  17.1104  17.1630  17.4161
    17.4451  17.4983  17.5366  17.5934  17.6941  17.7797  17.8499  17.9377
    17.9654  17.9774  18.0706  18.0956  18.1064  18.2007  18.2430  18.2672
    18.2715  18.3009  18.3354  18.3756  18.4437  18.4622  18.4772  18.5184
    18.5775  18.6055  18.6304  18.9700  18.9762  19.0387  20.2056  20.2571
    20.4525

          k = 0.2500-0.2500-0.5000 (  6456 PWs)   bands (ev):

   -86.7066 -68.9430 -68.9393 -68.9346 -68.8752 -68.8726 -68.8698 -68.8550
   -68.8533 -68.8511 -68.8397 -68.8301 -68.8231 -68.8190 -68.8027 -46.9032
   -46.9026 -46.8312 -35.1644 -35.1579 -35.1562 -35.1528 -35.1495 -35.1301
   -35.1289 -35.1093 -35.0935 -35.0777 -35.0755 -35.0691 -35.0557 -35.0481
   -35.0315 -35.0198 -35.0158 -34.9988 -34.9953 -34.9890 -34.9816 -34.9534
   -34.9403 -34.9326 -34.9159 -34.9056 -34.9044 -34.8993 -34.8977 -34.8778
   -34.8761 -34.8519 -34.8504 -34.8416 -34.8323 -34.8309 -34.8226 -34.8210
   -34.8162 -34.8129 -34.8115 -34.8070   9.7814  10.1343  11.6521  11.7992
    11.9299  12.3033  13.1305  13.5543  13.6372  13.7292  13.8125  13.8641
    13.8881  13.9341  14.1019  14.1416  14.3168  14.3995  14.4623  14.5857
    14.7347  14.8261  14.8892  14.9183  14.9637  15.0030  15.0812  15.1459
    15.1712  15.2477  15.3280  15.4177  15.4204  15.4671  15.4770  15.5176
    15.6084  15.6632  15.6983  15.7889  15.8270  15.8535  15.9286  16.2268
    16.3225  16.5774  16.7007  16.8077  16.9496  16.9904  17.3753  17.4568
    17.4898  17.5101  17.6454  17.7274  17.7903  17.8063  17.8550  17.9268
    17.9758  18.0137  18.0288  18.0919  18.1520  18.2029  18.2241  18.2725
    18.3215  18.3274  18.3451  18.3474  18.3945  18.4325  18.4453  18.5279
    18.5660  18.5805  18.5925  18.6099  18.6948  19.7670  20.0468  20.7513
    20.8284

     the Fermi energy is    16.2199 ev

!    total energy              =   -3807.98126450 Ry
     estimated scf accuracy    <       0.00000055 Ry
     smearing contrib. (-TS)   =       0.01637667 Ry
     internal energy E=F+TS    =   -3807.99764118 Ry

     The total energy is F=E-TS. E is the sum of the following terms:
     one-electron contribution =   -1986.17604961 Ry
     hartree contribution      =    1119.25839593 Ry
     xc contribution           =    -422.91957236 Ry
     ewald contribution        =   -2518.16041514 Ry

     total magnetization       =    36.55 Bohr mag/cell
     absolute magnetization    =    38.95 Bohr mag/cell

     convergence has been achieved in  42 iterations

     negative rho (up, down):  0.000E+00 4.905E-03

     Forces acting on atoms (cartesian axes, Ry/au):

     atom    1 type  2   force =    -0.00633061   -0.00633061   -0.00633061
     atom    2 type  1   force =    -0.00648705    0.00172849    0.00172849
     atom    3 type  1   force =     0.00172849   -0.00648705    0.00172849
     atom    4 type  1   force =     0.00191495    0.00191495   -0.00145131
     atom    5 type  1   force =     0.00172849    0.00172849   -0.00648705
     atom    6 type  1   force =     0.00191495   -0.00145131    0.00191495
     atom    7 type  1   force =    -0.00145131    0.00191495    0.00191495
     atom    8 type  1   force =    -0.00648345   -0.00648345   -0.00648345
     atom    9 type  1   force =     0.01316492   -0.01028451   -0.01028451
     atom   10 type  1   force =    -0.01028451    0.01316492   -0.01028451
     atom   11 type  1   force =     0.00853781    0.00853781   -0.01172010
     atom   12 type  1   force =    -0.01028451   -0.01028451    0.01316492
     atom   13 type  1   force =     0.00853781   -0.01172010    0.00853781
     atom   14 type  1   force =    -0.01172010    0.00853781    0.00853781
     atom   15 type  1   force =     0.01551412    0.01551412    0.01551412

     Total force =     0.056080     Total SCF correction =     0.003149

     BFGS Geometry Optimization
     Energy error            =      3.1E-03 Ry
     Gradient error          =      1.6E-02 Ry/Bohr

     number of scf cycles    =   1
     number of bfgs steps    =   0

     energy             new  =   -3807.9812645041 Ry

     new trust radius        =       0.0268712524 bohr
     new conv_thr            =       0.0000010000 Ry


ATOMIC_POSITIONS (crystal)
Ni               0.2494155638        0.2494155638        0.2494155638
Fe               0.4994011218        0.0001595725        0.0001595725
Fe               0.0001595725        0.4994011218        0.0001595725
Fe               0.5001767861        0.5001767861       -0.0001339839
Fe               0.0001595725        0.0001595725        0.4994011218
Fe               0.5001767861       -0.0001339839        0.5001767861
Fe              -0.0001339839        0.5001767861        0.5001767861
Fe               0.4994014542        0.4994014542        0.4994014542
Fe               0.7512153725        0.2490505437        0.2490505437
Fe               0.2490505437        0.7512153725        0.2490505437
Fe               0.7507882029        0.7507882029        0.2489180118
Fe               0.2490505437        0.2490505437        0.7512153725
Fe               0.7507882029        0.2489180118        0.7507882029
Fe               0.2489180118        0.7507882029        0.7507882029
Fe               0.7514322493        0.7514322493        0.7514322493



     Writing config-only to output data dir ./outdir/fe15_ni1_start.save/ :
     XML data file
     NEW-OLD atomic charge density approx. for the potential

     Check: negative core charge=   -0.000004

     negative rho (up, down):  0.000E+00 4.782E-03
     Generating pointlists ...

     total cpu time spent up to now is    32656.9 secs

     per-process dynamical memory:   166.9 Mb

     Self-consistent Calculation

     iteration #  1     ecut=    45.00 Ry     beta= 0.10
     Davidson diagonalization with overlap
     ethr =  1.00E-06,  avg # of iterations =  8.0

     negative rho (up, down):  0.000E+00 4.723E-03

     total cpu time spent up to now is    34462.3 secs

     total energy              =   -3807.98460795 Ry
     estimated scf accuracy    <       0.01038143 Ry

     total magnetization       =    36.58 Bohr mag/cell
     absolute magnetization    =    38.98 Bohr mag/cell

     iteration #  2     ecut=    45.00 Ry     beta= 0.10
     Davidson diagonalization with overlap
     ethr =  4.29E-06,  avg # of iterations =  2.0

     negative rho (up, down):  0.000E+00 4.726E-03

     total cpu time spent up to now is    35238.6 secs

     total energy              =   -3807.98223962 Ry
     estimated scf accuracy    <       0.10141656 Ry

     total magnetization       =    36.57 Bohr mag/cell
     absolute magnetization    =    39.13 Bohr mag/cell

     iteration #  3     ecut=    45.00 Ry     beta= 0.10
     Davidson diagonalization with overlap
     ethr =  4.29E-06,  avg # of iterations =  2.0

     negative rho (up, down):  0.000E+00 4.683E-03

     total cpu time spent up to now is    36020.7 secs

     total energy              =   -3807.98324478 Ry
     estimated scf accuracy    <       0.00499116 Ry

     total magnetization       =    36.57 Bohr mag/cell
     absolute magnetization    =    38.98 Bohr mag/cell

     iteration #  4     ecut=    45.00 Ry     beta= 0.10
     Davidson diagonalization with overlap
     ethr =  2.06E-06,  avg # of iterations =  1.5

     negative rho (up, down):  0.000E+00 4.593E-03

     total cpu time spent up to now is    36738.5 secs

     total energy              =   -3807.98343902 Ry
     estimated scf accuracy    <       0.00124636 Ry

     total magnetization       =    36.56 Bohr mag/cell
     absolute magnetization    =    38.97 Bohr mag/cell

     iteration #  5     ecut=    45.00 Ry     beta= 0.10
     Davidson diagonalization with overlap
     ethr =  5.15E-07,  avg # of iterations =  1.2

     negative rho (up, down):  0.000E+00 4.374E-03

     total cpu time spent up to now is    37437.7 secs

     total energy              =   -3807.98351606 Ry
     estimated scf accuracy    <       0.00035146 Ry

     total magnetization       =    36.55 Bohr mag/cell
     absolute magnetization    =    38.96 Bohr mag/cell

     iteration #  6     ecut=    45.00 Ry     beta= 0.10
     Davidson diagonalization with overlap
     ethr =  1.45E-07,  avg # of iterations =  2.2

     negative rho (up, down):  0.000E+00 4.338E-03

     total cpu time spent up to now is    38266.1 secs

     total energy              =   -3807.98367075 Ry
     estimated scf accuracy    <       0.00013575 Ry

     total magnetization       =    36.56 Bohr mag/cell
     absolute magnetization    =    38.96 Bohr mag/cell

     iteration #  7     ecut=    45.00 Ry     beta= 0.10
     Davidson diagonalization with overlap
     ethr =  5.61E-08,  avg # of iterations =  2.2

     negative rho (up, down):  0.000E+00 4.346E-03

     total cpu time spent up to now is    38990.2 secs

     total energy              =   -3807.98376878 Ry
     estimated scf accuracy    <       0.00001167 Ry

     total magnetization       =    36.55 Bohr mag/cell
     absolute magnetization    =    38.96 Bohr mag/cell

     iteration #  8     ecut=    45.00 Ry     beta= 0.10
     Davidson diagonalization with overlap
     ethr =  4.82E-09,  avg # of iterations =  3.9

     negative rho (up, down):  0.000E+00 4.343E-03

     total cpu time spent up to now is    39850.7 secs

     total energy              =   -3807.98386021 Ry
     estimated scf accuracy    <       0.00001613 Ry

     total magnetization       =    36.55 Bohr mag/cell
     absolute magnetization    =    38.96 Bohr mag/cell

     iteration #  9     ecut=    45.00 Ry     beta= 0.10
     Davidson diagonalization with overlap
     ethr =  4.82E-09,  avg # of iterations =  2.0

     negative rho (up, down):  0.000E+00 4.338E-03

     total cpu time spent up to now is    40623.8 secs

     total energy              =   -3807.98391352 Ry
     estimated scf accuracy    <       0.00001882 Ry

     total magnetization       =    36.55 Bohr mag/cell
     absolute magnetization    =    38.96 Bohr mag/cell

     iteration # 10     ecut=    45.00 Ry     beta= 0.10
     Davidson diagonalization with overlap
     ethr =  4.82E-09,  avg # of iterations =  1.1

     negative rho (up, down):  0.000E+00 4.344E-03

     total cpu time spent up to now is    41323.9 secs

     total energy              =   -3807.98395629 Ry
     estimated scf accuracy    <       0.00001810 Ry

     total magnetization       =    36.55 Bohr mag/cell
     absolute magnetization    =    38.96 Bohr mag/cell

     iteration # 11     ecut=    45.00 Ry     beta= 0.10
     Davidson diagonalization with overlap
     ethr =  4.82E-09,  avg # of iterations =  2.0

     negative rho (up, down):  0.000E+00 4.344E-03

     total cpu time spent up to now is    42061.7 secs

     total energy              =   -3807.98400014 Ry
     estimated scf accuracy    <       0.00000132 Ry

     total magnetization       =    36.55 Bohr mag/cell
     absolute magnetization    =    38.96 Bohr mag/cell

     iteration # 12     ecut=    45.00 Ry     beta= 0.10
     Davidson diagonalization with overlap
     ethr =  5.46E-10,  avg # of iterations =  2.0

     negative rho (up, down):  0.000E+00 4.333E-03

     total cpu time spent up to now is    42832.5 secs

     total energy              =   -3807.98403496 Ry
     estimated scf accuracy    <       0.00000284 Ry

     total magnetization       =    36.55 Bohr mag/cell
     absolute magnetization    =    38.96 Bohr mag/cell

     iteration # 13     ecut=    45.00 Ry     beta= 0.10
     Davidson diagonalization with overlap
     ethr =  5.46E-10,  avg # of iterations =  2.6

     negative rho (up, down):  0.000E+00 4.333E-03

     total cpu time spent up to now is    43679.4 secs

     total energy              =   -3807.98406342 Ry
     estimated scf accuracy    <       0.00000167 Ry

     total magnetization       =    36.55 Bohr mag/cell
     absolute magnetization    =    38.96 Bohr mag/cell

     iteration # 14     ecut=    45.00 Ry     beta= 0.10
     Davidson diagonalization with overlap
     ethr =  5.46E-10,  avg # of iterations =  1.0

     negative rho (up, down):  0.000E+00 4.329E-03

     total cpu time spent up to now is    44377.3 secs

     total energy              =   -3807.98408430 Ry
     estimated scf accuracy    <       0.00000146 Ry

     total magnetization       =    36.55 Bohr mag/cell
     absolute magnetization    =    38.96 Bohr mag/cell

     iteration # 15     ecut=    45.00 Ry     beta= 0.10
     Davidson diagonalization with overlap
     ethr =  5.46E-10,  avg # of iterations =  2.0

     negative rho (up, down):  0.000E+00 4.326E-03

     total cpu time spent up to now is    45173.3 secs

     total energy              =   -3807.98410675 Ry
     estimated scf accuracy    <       0.00001948 Ry

     total magnetization       =    36.55 Bohr mag/cell
     absolute magnetization    =    38.96 Bohr mag/cell

     iteration # 16     ecut=    45.00 Ry     beta= 0.10
     Davidson diagonalization with overlap
     ethr =  5.46E-10,  avg # of iterations =  2.0

     negative rho (up, down):  0.000E+00 4.323E-03

     total cpu time spent up to now is    45929.2 secs

     total energy              =   -3807.98412242 Ry
     estimated scf accuracy    <       0.00000916 Ry

     total magnetization       =    36.55 Bohr mag/cell
     absolute magnetization    =    38.96 Bohr mag/cell

     iteration # 17     ecut=    45.00 Ry     beta= 0.10
     Davidson diagonalization with overlap
     ethr =  5.46E-10,  avg # of iterations =  2.0

     negative rho (up, down):  0.000E+00 4.313E-03

     Magnetic moment per site  (integrated on atomic sphere of radius R)
     atom   1 (R=0.179)  charge= 16.6320  magn=  0.9483
     atom   2 (R=0.179)  charge= 14.4233  magn=  2.5077
     atom   3 (R=0.179)  charge= 14.4233  magn=  2.5077
     atom   4 (R=0.179)  charge= 14.4069  magn=  2.6240
     atom   5 (R=0.179)  charge= 14.4233  magn=  2.5077
     atom   6 (R=0.179)  charge= 14.4069  magn=  2.6240
     atom   7 (R=0.179)  charge= 14.4069  magn=  2.6240
     atom   8 (R=0.179)  charge= 14.4029  magn=  2.6910
     atom   9 (R=0.179)  charge= 14.3858  magn=  2.6031
     atom  10 (R=0.179)  charge= 14.3858  magn=  2.6031
     atom  11 (R=0.179)  charge= 14.3793  magn=  2.6569
     atom  12 (R=0.179)  charge= 14.3858  magn=  2.6031
     atom  13 (R=0.179)  charge= 14.3793  magn=  2.6569
     atom  14 (R=0.179)  charge= 14.3793  magn=  2.6569
     atom  15 (R=0.179)  charge= 14.3804  magn=  2.6679

     total cpu time spent up to now is    46763.0 secs

     End of self-consistent calculation

 ------ SPIN UP ------------


          k = 0.0000 0.0000 0.0000 (  6451 PWs)   bands (ev):

   -88.0409 -72.2469 -72.2225 -72.2225 -72.2200 -72.1931 -72.1931 -72.1820
   -72.1563 -72.0984 -72.0984 -72.0977 -71.9802 -71.9802 -71.9733 -48.2441
   -48.2441 -48.1356 -38.3939 -38.3659 -38.3659 -38.3225 -38.3225 -38.3189
   -38.2830 -38.2809 -38.2809 -38.2716 -38.2537 -38.2347 -38.2347 -38.2292
   -38.1779 -38.1779 -38.1774 -38.1586 -38.1586 -38.1206 -38.1206 -38.1159
   -38.1114 -38.1114 -38.1021 -38.0974 -38.0974 -38.0601 -38.0560 -38.0560
   -38.0503 -38.0503 -38.0461 -38.0354 -37.9610 -37.9610 -37.9281 -37.9281
   -37.8645 -37.8629 -37.8615 -37.8615   8.0540  11.3342  11.4061  11.4061
    11.4337  11.4744  11.4744  11.5240  11.5240  11.6494  11.7279  11.7279
    12.0067  12.0067  12.4937  12.7509  12.7576  12.7576  12.8044  12.8044
    12.8141  12.9321  12.9321  12.9656  13.1678  13.1678  13.2034  13.2239
    13.3337  13.3337  13.3762  13.7383  13.7383  13.8129  13.8129  13.8168
    14.0419  14.0419  14.0566  14.1577  14.1577  14.1651  14.1651  14.1815
    14.1916  14.5741  14.6081  14.6081  14.7143  14.8138  14.8138  14.8425
    14.8425  15.0007  15.0282  15.0375  15.0375  15.0993  15.0993  15.1378
    15.1378  15.1600  15.1600  15.1876  15.1876  15.2093  15.2244  15.5191
    15.6525  15.6525  16.0152  16.0152  16.0444  16.0444  16.1581  16.1581
    16.1723  16.1820  16.2911  16.2911  16.3289  16.5607  16.5607  16.5727
    16.6181

          k = 0.0000 0.0000 0.2500 (  6495 PWs)   bands (ev):

   -88.0410 -72.2449 -72.2254 -72.2226 -72.2203 -72.1932 -72.1917 -72.1825
   -72.1563 -72.0993 -72.0986 -72.0969 -71.9804 -71.9794 -71.9741 -48.2571
   -48.2527 -48.1463 -38.3943 -38.3684 -38.3665 -38.3246 -38.3235 -38.3177
   -38.2936 -38.2790 -38.2772 -38.2687 -38.2478 -38.2391 -38.2314 -38.2250
   -38.2032 -38.1977 -38.1822 -38.1722 -38.1463 -38.1413 -38.1319 -38.1209
   -38.1198 -38.1073 -38.0956 -38.0910 -38.0873 -38.0657 -38.0560 -38.0473
   -38.0440 -38.0323 -38.0290 -38.0246 -37.9742 -37.9695 -37.9272 -37.9245
   -37.8775 -37.8768 -37.8727 -37.8723   8.3503  10.5135  11.4478  11.4742
    11.5129  11.5611  11.5778  11.5946  11.6674  11.7466  11.8006  11.8138
    12.0703  12.1429  12.4930  12.6668  12.7003  12.7032  12.7237  12.7862
    12.8422  12.8525  12.9128  13.0689  13.0751  13.1570  13.2020  13.2404
    13.2698  13.5266  13.5438  13.6891  13.7197  13.7205  13.7741  13.7787
    13.8248  13.8518  13.9704  14.0818  14.0866  14.2512  14.3431  14.4091
    14.4246  14.5042  14.5133  14.5505  14.5754  14.6346  14.6883  14.7888
    14.8062  14.8761  14.9365  14.9723  15.0258  15.0385  15.0719  15.0730
    15.1174  15.1189  15.1461  15.1600  15.1732  15.1845  15.2132  15.2526
    15.3107  15.4829  15.5661  15.5920  15.6507  15.9136  16.0488  16.0743
    16.0957  16.1415  16.2696  16.2804  16.4424  16.6058  16.7860  16.8451
    17.0128

          k = 0.0000 0.0000-0.5000 (  6480 PWs)   bands (ev):

   -88.0410 -72.2420 -72.2292 -72.2226 -72.2204 -72.1932 -72.1901 -72.1834
   -72.1563 -72.0997 -72.0986 -72.0964 -71.9804 -71.9779 -71.9755 -48.2570
   -48.2479 -48.1434 -38.3895 -38.3617 -38.3540 -38.3240 -38.3126 -38.2969
   -38.2930 -38.2889 -38.2884 -38.2655 -38.2533 -38.2397 -38.2326 -38.2205
   -38.2187 -38.2175 -38.1946 -38.1841 -38.1501 -38.1479 -38.1386 -38.1220
   -38.1211 -38.1035 -38.0936 -38.0885 -38.0779 -38.0699 -38.0483 -38.0412
   -38.0402 -38.0153 -38.0149 -38.0109 -37.9837 -37.9706 -37.9207 -37.9109
   -37.8906 -37.8861 -37.8765 -37.8756   9.0620   9.4301  11.5465  11.5728
    11.6353  11.7060  11.7459  11.7656  11.7952  11.9001  11.9018  11.9834
    12.0170  12.1571  12.2924  12.3600  12.4639  12.6640  12.6740  12.6969
    12.9074  12.9161  13.1912  13.1926  13.2146  13.2445  13.2966  13.3909
    13.4241  13.4917  13.5386  13.5891  13.6300  13.6473  13.6805  13.7505
    13.7816  13.7864  13.8042  13.9028  13.9082  14.0661  14.1981  14.2279
    14.3029  14.3922  14.4189  14.4342  14.5525  14.5544  14.6954  14.6997
    14.7341  14.7512  14.7692  14.9516  15.0002  15.0227  15.0443  15.0771
    15.0832  15.1665  15.1670  15.1859  15.1874  15.1982  15.2158  15.2481
    15.4437  15.5938  15.6198  15.6986  15.7059  15.7390  15.7772  15.7972
    15.8358  16.2472  16.3764  16.4157  16.5026  16.6603  16.6963  16.7034
    16.7393

          k = 0.0000 0.2500 0.2500 (  6500 PWs)   bands (ev):

   -88.0410 -72.2427 -72.2268 -72.2240 -72.2207 -72.1928 -72.1904 -72.1836
   -72.1563 -72.0993 -72.0987 -72.0968 -71.9799 -71.9790 -71.9750 -48.2577
   -48.2519 -48.1499 -38.3918 -38.3642 -38.3590 -38.3188 -38.3157 -38.3106
   -38.2985 -38.2870 -38.2791 -38.2773 -38.2497 -38.2388 -38.2363 -38.2247
   -38.2155 -38.2008 -38.1822 -38.1687 -38.1475 -38.1378 -38.1349 -38.1326
   -38.1192 -38.1119 -38.1020 -38.0981 -38.0820 -38.0639 -38.0597 -38.0485
   -38.0402 -38.0326 -38.0284 -38.0043 -37.9747 -37.9722 -37.9197 -37.9109
   -37.8880 -37.8783 -37.8771 -37.8722   8.6479  10.6272  10.7685  11.4075
    11.6291  11.6827  11.6867  11.7247  11.7854  11.8662  11.9052  11.9428
    12.2023  12.2229  12.5353  12.5822  12.6099  12.6991  12.8012  12.8408
    12.8618  12.8917  12.9139  12.9472  13.0073  13.0161  13.1895  13.3170
    13.3418  13.3738  13.4711  13.5984  13.6073  13.6918  13.7074  13.7372
    13.7690  13.9219  13.9523  14.0596  14.1232  14.2331  14.3003  14.3195
    14.3829  14.3985  14.4158  14.4662  14.5133  14.5929  14.6033  14.6462
    14.6743  14.7756  14.7979  14.8423  14.9093  14.9935  15.0017  15.0287
    15.0590  15.0899  15.1192  15.1411  15.1762  15.2350  15.3159  15.3527
    15.3734  15.3837  15.4112  15.4756  15.4996  15.5355  15.5647  15.6935
    15.7744  15.8399  16.0800  16.5299  16.5572  17.5990  17.6725  17.8222
    17.9879

          k = 0.0000 0.2500-0.5000 (  6452 PWs)   bands (ev):

   -88.0409 -72.2400 -72.2291 -72.2246 -72.2207 -72.1925 -72.1894 -72.1842
   -72.1561 -72.0997 -72.0986 -72.0963 -71.9796 -71.9778 -71.9761 -48.2478
   -48.2416 -48.1359 -38.3852 -38.3554 -38.3478 -38.3233 -38.3118 -38.3004
   -38.2911 -38.2894 -38.2859 -38.2719 -38.2584 -38.2465 -38.2281 -38.2260
   -38.2191 -38.2037 -38.1822 -38.1696 -38.1475 -38.1397 -38.1324 -38.1222
   -38.1158 -38.1054 -38.0980 -38.0932 -38.0790 -38.0659 -38.0605 -38.0487
   -38.0445 -38.0297 -38.0248 -37.9912 -37.9800 -37.9722 -37.9102 -37.9013
   -37.8881 -37.8841 -37.8757 -37.8696   9.3359   9.6747  10.9982  11.2606
    11.7696  11.8752  11.9465  11.9639  11.9805  12.0047  12.0403  12.0868
    12.1296  12.2417  12.3608  12.3866  12.5375  12.7038  12.7598  12.7669
    12.8971  12.9539  13.0184  13.0631  13.1221  13.1501  13.2128  13.2586
    13.3459  13.4014  13.5090  13.5194  13.5409  13.6003  13.6342  13.6621
    13.6780  13.7260  13.7630  13.8433  13.9562  13.9967  14.0322  14.0902
    14.2170  14.2759  14.4378  14.4944  14.5328  14.5940  14.6765  14.6984
    14.7255  14.7556  14.7646  14.8046  14.8566  14.8863  14.9711  14.9879
    15.0364  15.0542  15.0970  15.1264  15.1507  15.2060  15.2229  15.2361
    15.2884  15.3148  15.3542  15.4049  15.4583  15.4665  15.4899  15.6935
    15.7817  15.9561  16.0847  17.0142  17.0832  17.1378  17.2374  18.7080
    18.8435

          k = 0.0000-0.5000-0.5000 (  6496 PWs)   bands (ev):

   -88.0410 -72.2368 -72.2303 -72.2271 -72.2210 -72.1923 -72.1881 -72.1856
   -72.1561 -72.0999 -72.0987 -72.0963 -71.9783 -71.9779 -71.9775 -48.2592
   -48.2513 -48.1463 -38.3831 -38.3527 -38.3383 -38.3260 -38.3136 -38.3083
   -38.2978 -38.2917 -38.2874 -38.2748 -38.2693 -38.2578 -38.2274 -38.2268
   -38.2173 -38.1980 -38.1812 -38.1494 -38.1402 -38.1400 -38.1367 -38.1164
   -38.1136 -38.1050 -38.1047 -38.0983 -38.0934 -38.0831 -38.0729 -38.0624
   -38.0552 -38.0350 -38.0316 -37.9825 -37.9811 -37.9769 -37.9048 -37.8936
   -37.8916 -37.8839 -37.8806 -37.8667  10.0261  10.1323  10.1356  10.7205
    12.0311  12.0412  12.0505  12.1314  12.1735  12.2228  12.2346  12.2470
    12.3008  12.3332  12.5048  12.5756  12.5845  12.5993  12.7059  12.7117
    12.8118  12.8252  12.8652  12.9320  12.9345  13.0242  13.0485  13.2596
    13.3288  13.3374  13.3924  13.4175  13.4795  13.5222  13.5322  13.6174
    13.6289  13.6391  13.6399  13.7156  13.7528  13.7668  13.9795  14.0485
    14.1192  14.2252  14.3432  14.4506  14.6112  14.6448  14.6620  14.7085
    14.7132  14.7318  14.7792  14.8208  14.8443  14.8631  14.9001  14.9111
    14.9184  14.9241  14.9369  15.0210  15.0602  15.0699  15.0862  15.0985
    15.1564  15.2051  15.2617  15.2789  15.3409  15.3762  15.3934  15.7229
    15.8274  16.0458  16.1910  17.7843  17.8596  17.9778  18.1108  18.2322
    18.2697

          k = 0.2500 0.2500 0.2500 (  6493 PWs)   bands (ev):

   -88.0410 -72.2403 -72.2266 -72.2266 -72.2213 -72.1904 -72.1904 -72.1851
   -72.1562 -72.0986 -72.0986 -72.0975 -71.9789 -71.9789 -71.9759 -48.2546
   -48.2546 -48.1457 -38.3888 -38.3538 -38.3538 -38.3101 -38.3101 -38.3035
   -38.3025 -38.2960 -38.2792 -38.2792 -38.2536 -38.2385 -38.2385 -38.2265
   -38.2265 -38.2038 -38.1754 -38.1622 -38.1622 -38.1310 -38.1310 -38.1296
   -38.1242 -38.1146 -38.1146 -38.0869 -38.0869 -38.0662 -38.0605 -38.0605
   -38.0295 -38.0291 -38.0291 -38.0024 -37.9747 -37.9747 -37.9069 -37.9069
   -37.8931 -37.8789 -37.8755 -37.8755   8.9385  10.8443  10.8443  11.0207
    11.5999  11.5999  11.6829  11.8885  11.8885  11.9803  12.0626  12.0626
    12.3687  12.3687  12.5455  12.5900  12.5974  12.7460  12.7460  12.8544
    12.8544  12.8901  12.9450  12.9572  12.9572  13.1207  13.1207  13.2141
    13.3177  13.3177  13.3497  13.4857  13.4857  13.5721  13.5721  13.6514
    13.6514  13.7446  13.7873  13.9346  13.9346  14.0374  14.1888  14.1888
    14.2843  14.2843  14.3531  14.5398  14.5831  14.5831  14.5982  14.7586
    14.7586  14.7760  14.8285  14.8512  14.8512  14.9325  14.9432  14.9432
    15.0703  15.0703  15.0819  15.1219  15.1219  15.1689  15.1901  15.1901
    15.2700  15.3283  15.3283  15.5716  15.5716  15.5769  15.6976  15.6976
    15.7254  15.7254  15.8471  16.5769  16.5769  16.6579  18.5230  18.5230
    18.7493

          k = 0.2500 0.2500-0.5000 (  6456 PWs)   bands (ev):

   -88.0409 -72.2378 -72.2288 -72.2265 -72.2219 -72.1905 -72.1900 -72.1853
   -72.1561 -72.0993 -72.0986 -72.0968 -71.9789 -71.9780 -71.9767 -48.2491
   -48.2434 -48.1358 -38.3818 -38.3494 -38.3432 -38.3178 -38.3099 -38.3013
   -38.2947 -38.2888 -38.2834 -38.2736 -38.2587 -38.2441 -38.2422 -38.2220
   -38.2208 -38.1946 -38.1767 -38.1689 -38.1505 -38.1457 -38.1282 -38.1243
   -38.1168 -38.1118 -38.1099 -38.0952 -38.0921 -38.0687 -38.0574 -38.0477
   -38.0344 -38.0283 -38.0215 -37.9959 -37.9834 -37.9724 -37.9081 -37.9017
   -37.8899 -37.8838 -37.8740 -37.8705   9.6124   9.9265  11.2353  11.2384
    11.3844  11.5992  12.0919  12.1398  12.1404  12.1604  12.1800  12.1954
    12.2206  12.3502  12.3774  12.4772  12.6346  12.7320  12.7783  12.8580
    12.9185  12.9431  12.9533  13.0170  13.0657  13.1175  13.1453  13.1574
    13.2185  13.2750  13.4031  13.4104  13.4383  13.4654  13.4713  13.4845
    13.5162  13.5310  13.5334  13.5723  13.7591  13.8828  13.8934  13.9755
    14.0084  14.2188  14.3820  14.4077  14.6174  14.6616  14.7156  14.7192
    14.7665  14.7775  14.8074  14.8343  14.8765  14.9188  14.9753  15.0082
    15.0321  15.0879  15.1026  15.1281  15.1506  15.1757  15.1803  15.2115
    15.2339  15.3389  15.3848  15.3909  15.5013  15.6846  15.7186  15.7641
    15.8289  15.8826  15.9071  16.0024  16.0196  17.6713  17.9815  19.2178
    19.2236

          k = 0.2500-0.5000-0.5000 (  6472 PWs)   bands (ev):

   -88.0409 -72.2349 -72.2301 -72.2273 -72.2230 -72.1911 -72.1883 -72.1864
   -72.1560 -72.0994 -72.0986 -72.0967 -71.9785 -71.9776 -71.9775 -48.2495
   -48.2489 -48.1407 -38.3765 -38.3425 -38.3333 -38.3194 -38.3107 -38.3024
   -38.2999 -38.2847 -38.2806 -38.2707 -38.2619 -38.2557 -38.2387 -38.2212
   -38.2149 -38.1959 -38.1703 -38.1562 -38.1540 -38.1439 -38.1422 -38.1344
   -38.1341 -38.1214 -38.1180 -38.0968 -38.0940 -38.0587 -38.0526 -38.0493
   -38.0322 -38.0246 -38.0237 -37.9910 -37.9841 -37.9805 -37.9056 -37.8996
   -37.8984 -37.8852 -37.8769 -37.8726  10.2866  10.3998  10.4073  10.9220
    11.7115  11.8848  11.9065  12.2324  12.2440  12.2539  12.2634  12.4975
    12.5368  12.5511  12.5644  12.6350  12.6436  12.7093  12.7400  12.7518
    12.7865  12.8868  12.8948  12.9070  12.9438  12.9912  13.0081  13.1296
    13.1767  13.1832  13.1852  13.1965  13.2542  13.2942  13.3335  13.3563
    13.3840  13.3971  13.4528  13.4998  13.5366  13.5888  13.6771  13.7029
    13.8639  14.2460  14.2586  14.2861  14.7121  14.7355  14.7955  14.8635
    14.8899  14.8982  14.9367  14.9510  14.9694  14.9949  15.0229  15.0413
    15.0574  15.0784  15.0796  15.0974  15.1148  15.1424  15.1627  15.2224
    15.2237  15.2527  15.2933  15.3650  15.4077  15.4284  15.4385  15.6335
    15.6969  15.8084  15.9232  16.6281  16.7420  16.7545  16.9843  20.1426
    20.2896

          k =-0.5000-0.5000-0.5000 (  6488 PWs)   bands (ev):

   -88.0409 -72.2309 -72.2299 -72.2299 -72.2249 -72.1886 -72.1884 -72.1884
   -72.1558 -72.0986 -72.0986 -72.0974 -71.9786 -71.9774 -71.9774 -48.2512
   -48.2512 -48.1428 -38.3709 -38.3268 -38.3268 -38.3175 -38.3067 -38.3067
   -38.3026 -38.2710 -38.2710 -38.2687 -38.2553 -38.2524 -38.2524 -38.2158
   -38.2158 -38.2000 -38.1613 -38.1613 -38.1585 -38.1541 -38.1518 -38.1518
   -38.1466 -38.1315 -38.1315 -38.0956 -38.0956 -38.0457 -38.0336 -38.0336
   -38.0238 -38.0178 -38.0178 -37.9990 -37.9913 -37.9913 -37.9043 -37.9041
   -37.9041 -37.8913 -37.8805 -37.8805  10.8936  11.0232  11.0452  11.0452
    11.2045  11.2260  11.2260  12.2028  12.6271  12.6271  12.6549  12.6587
    12.6587  12.6619  12.6619  12.6714  12.7207  12.7207  12.7488  12.8294
    12.8767  12.8767  12.9195  12.9195  13.0032  13.0032  13.0182  13.0497
    13.0503  13.0503  13.0729  13.0883  13.0883  13.0929  13.0929  13.0948
    13.1369  13.1524  13.1524  13.1657  13.1657  13.1734  13.2863  13.7126
    13.7126  14.1881  14.2254  14.2254  14.7537  14.7537  14.9195  14.9265
    14.9265  14.9617  14.9617  14.9762  15.0113  15.0113  15.0434  15.0606
    15.0606  15.0685  15.1711  15.1711  15.3119  15.3198  15.3198  15.3692
    15.4052  15.4052  15.4403  15.4403  15.4759  15.4978  15.4978  15.7358
    15.7358  15.7803  15.9470  16.0235  16.0487  16.0487  16.0582  22.5191
    22.5195

          k =-0.2500 0.0000 0.2500 (  6500 PWs)   bands (ev):

   -88.0410 -72.2430 -72.2252 -72.2249 -72.2208 -72.1926 -72.1914 -72.1830
   -72.1563 -72.0998 -72.0986 -72.0964 -71.9798 -71.9794 -71.9747 -48.2589
   -48.2554 -48.1451 -38.3900 -38.3624 -38.3611 -38.3256 -38.3210 -38.3069
   -38.2985 -38.2847 -38.2785 -38.2707 -38.2532 -38.2409 -38.2357 -38.2273
   -38.2168 -38.2081 -38.1856 -38.1551 -38.1489 -38.1394 -38.1288 -38.1201
   -38.1134 -38.1119 -38.1002 -38.0985 -38.0806 -38.0651 -38.0632 -38.0530
   -38.0446 -38.0382 -38.0289 -38.0059 -37.9781 -37.9728 -37.9233 -37.9147
   -37.8837 -37.8797 -37.8741 -37.8662   8.6480  10.5961  10.8035  11.4009
    11.6316  11.6810  11.7017  11.7496  11.7526  11.8778  11.8922  11.9396
    12.1881  12.2225  12.5378  12.5899  12.6030  12.7030  12.7824  12.8467
    12.8607  12.8873  12.9239  12.9741  13.0072  13.0194  13.1857  13.3288
    13.3474  13.3941  13.4872  13.5260  13.6658  13.6734  13.7084  13.7302
    13.7585  13.9021  13.9416  14.0694  14.1029  14.2077  14.3324  14.3538
    14.3872  14.4009  14.4397  14.4642  14.4965  14.5505  14.5816  14.6410
    14.6745  14.7837  14.8398  14.8945  14.9175  14.9498  15.0158  15.0580
    15.0917  15.0979  15.1224  15.1427  15.1518  15.1987  15.2858  15.3352
    15.3486  15.4005  15.4451  15.4876  15.5082  15.5246  15.6011  15.6041
    15.7310  15.7563  16.2155  16.5335  16.5692  17.5009  17.6746  17.8305
    18.0689

          k = 0.2500-0.2500 0.2500 (  6493 PWs)   bands (ev):

   -88.0410 -72.2411 -72.2266 -72.2245 -72.2222 -72.1924 -72.1904 -72.1838
   -72.1562 -72.0998 -72.0986 -72.0964 -71.9795 -71.9789 -71.9754 -48.2546
   -48.2542 -48.1461 -38.3856 -38.3565 -38.3524 -38.3230 -38.3143 -38.3001
   -38.2977 -38.2882 -38.2800 -38.2794 -38.2566 -38.2402 -38.2402 -38.2309
   -38.2205 -38.1946 -38.1854 -38.1580 -38.1547 -38.1366 -38.1349 -38.1294
   -38.1280 -38.1119 -38.1076 -38.0905 -38.0879 -38.0618 -38.0576 -38.0538
   -38.0326 -38.0309 -38.0288 -38.0037 -37.9794 -37.9736 -37.9186 -37.9054
   -37.8876 -37.8837 -37.8727 -37.8710   8.9388  10.8006  10.8448  11.0695
    11.5633  11.5901  11.7411  11.8736  11.9033  12.0047  12.0459  12.0594
    12.3481  12.3641  12.5398  12.5672  12.6036  12.7563  12.7646  12.8481
    12.8644  12.8911  12.9242  12.9834  12.9848  13.1071  13.1112  13.2257
    13.3084  13.3304  13.3456  13.4625  13.5121  13.5671  13.5677  13.6750
    13.6864  13.7333  13.7617  13.9314  13.9769  14.0439  14.1501  14.1854
    14.2400  14.2576  14.3917  14.4401  14.4910  14.5525  14.6034  14.7232
    14.7604  14.7969  14.8319  14.8899  14.9253  14.9638  14.9903  15.0086
    15.0365  15.0534  15.0774  15.1067  15.1082  15.1260  15.1612  15.1919
    15.3441  15.3736  15.3919  15.5121  15.5653  15.5684  15.5948  15.6905
    15.7461  15.8503  15.8523  16.5570  16.5580  16.6743  18.4692  18.5239
    18.8065

          k = 0.2500-0.2500-0.5000 (  6456 PWs)   bands (ev):

   -88.0409 -72.2383 -72.2293 -72.2243 -72.2229 -72.1923 -72.1890 -72.1848
   -72.1560 -72.0998 -72.0986 -72.0963 -71.9794 -71.9777 -71.9765 -48.2454
   -48.2447 -48.1384 -38.3807 -38.3487 -38.3436 -38.3233 -38.3097 -38.2980
   -38.2943 -38.2902 -38.2837 -38.2710 -38.2571 -38.2460 -38.2366 -38.2242
   -38.2216 -38.1939 -38.1729 -38.1695 -38.1530 -38.1457 -38.1351 -38.1306
   -38.1239 -38.1154 -38.1062 -38.0942 -38.0868 -38.0675 -38.0539 -38.0465
   -38.0319 -38.0286 -38.0135 -37.9947 -37.9806 -37.9779 -37.9079 -37.9013
   -37.8918 -37.8840 -37.8757 -37.8723   9.6119   9.9276  11.1974  11.2755
    11.3596  11.6366  12.0777  12.1414  12.1441  12.1590  12.1950  12.2003
    12.2114  12.3468  12.3838  12.4763  12.6350  12.7498  12.7600  12.8562
    12.9005  12.9269  12.9622  13.0348  13.0434  13.1297  13.1476  13.1637
    13.2602  13.2955  13.4090  13.4102  13.4334  13.4445  13.4650  13.4897
    13.5056  13.5260  13.5301  13.5407  13.7632  13.8725  13.9095  13.9765
    13.9936  14.2221  14.3738  14.4058  14.5934  14.6420  14.6758  14.7411
    14.7490  14.7837  14.7923  14.8339  14.8685  14.9196  14.9713  15.0241
    15.0338  15.0588  15.0930  15.1572  15.1590  15.1766  15.1965  15.2251
    15.2394  15.3430  15.4109  15.4391  15.5260  15.5927  15.7332  15.8299
    15.8454  15.8753  15.9208  15.9947  16.0223  17.6475  17.9586  19.1596
    19.2361

 ------ SPIN DOWN ----------


          k = 0.0000 0.0000 0.0000 (  6451 PWs)   bands (ev):

   -86.7121 -68.9526 -68.9322 -68.9322 -68.8779 -68.8649 -68.8649 -68.8516
   -68.8487 -68.8487 -68.8464 -68.8383 -68.8383 -68.8209 -68.7965 -46.9077
   -46.9077 -46.8332 -35.2122 -35.2012 -35.2012 -35.1738 -35.1559 -35.1559
   -35.0832 -35.0832 -35.0802 -35.0234 -35.0218 -35.0218 -35.0087 -35.0087
   -35.0005 -35.0004 -35.0004 -34.9977 -34.9789 -34.9789 -34.9668 -34.9631
   -34.9631 -34.9602 -34.9467 -34.9439 -34.9335 -34.9335 -34.9270 -34.9270
   -34.9161 -34.9161 -34.8926 -34.8279 -34.8121 -34.8121 -34.8024 -34.8024
   -34.7957 -34.7888 -34.7888 -34.7829   8.1953  12.1593  12.2075  12.2075
    12.3270  12.3270  12.4372  12.9012  12.9012  12.9718  12.9939  12.9939
    13.6932  13.6932  13.7197  14.3097  14.3097  14.4212  14.7251  14.7251
    14.7447  14.8885  14.8885  14.9753  15.1826  15.1826  15.3154  15.3985
    15.3985  15.6727  15.7127  15.8926  15.9866  15.9866  16.3056  16.3056
    16.3835  16.3835  16.4472  16.5054  16.5159  16.5159  16.5337  16.5845
    16.5845  16.6655  16.6655  16.7349  17.0158  17.0158  17.1181  17.2456
    17.2456  17.3110  17.3110  17.3331  17.4919  17.4919  17.5938  17.9534
    18.0207  18.0207  18.0710  18.0986  18.0986  18.2363  18.2363  18.3663
    18.3663  18.3864  18.3872  18.3895  18.3895  18.4511  18.5848  18.5848
    18.7798  18.7798  18.8337  18.8337  18.8885  18.8885  18.9221  18.9801
    19.0739

          k = 0.0000 0.0000 0.2500 (  6495 PWs)   bands (ev):

   -86.7122 -68.9498 -68.9346 -68.9322 -68.8775 -68.8686 -68.8647 -68.8539
   -68.8505 -68.8489 -68.8443 -68.8383 -68.8323 -68.8199 -68.7987 -46.9204
   -46.9161 -46.8437 -35.2057 -35.1955 -35.1943 -35.1661 -35.1558 -35.1542
   -35.0940 -35.0936 -35.0810 -35.0668 -35.0649 -35.0530 -35.0413 -35.0229
   -35.0219 -35.0053 -34.9839 -34.9810 -34.9780 -34.9688 -34.9582 -34.9540
   -34.9407 -34.9356 -34.9317 -34.9301 -34.9185 -34.9123 -34.9116 -34.9069
   -34.9052 -34.8960 -34.8857 -34.8369 -34.8279 -34.8226 -34.8177 -34.8141
   -34.8141 -34.8083 -34.8071 -34.8019   8.4960  10.7796  12.3595  12.3855
    12.4840  12.5032  12.9101  12.9294  12.9682  12.9762  13.1684  13.2986
    13.7192  13.8215  13.8853  14.2184  14.3255  14.3902  14.5395  14.7861
    14.7937  14.8650  14.9073  15.0109  15.0478  15.0709  15.3289  15.3344
    15.4083  15.4946  15.6223  15.8096  15.8555  15.8949  15.9958  16.0630
    16.0967  16.1447  16.1616  16.2006  16.2585  16.3149  16.3619  16.5013
    16.5447  16.6300  16.7639  16.7670  16.8816  16.9118  17.0680  17.1985
    17.2024  17.2840  17.3745  17.6411  17.6929  17.7332  17.8206  17.8940
    17.9134  17.9752  18.0492  18.0838  18.1513  18.1688  18.2895  18.3476
    18.3628  18.3813  18.4003  18.4928  18.5291  18.6182  18.6357  18.6786
    18.7246  18.7476  18.8365  18.8469  18.8652  18.9054  18.9439  18.9472
    18.9789

          k = 0.0000 0.0000-0.5000 (  6480 PWs)   bands (ev):

   -86.7122 -68.9452 -68.9389 -68.9322 -68.8766 -68.8726 -68.8645 -68.8549
   -68.8507 -68.8492 -68.8440 -68.8384 -68.8283 -68.8173 -68.8018 -46.9204
   -46.9117 -46.8408 -35.1647 -35.1612 -35.1582 -35.1544 -35.1520 -35.1424
   -35.1416 -35.1285 -35.1124 -35.0960 -35.0896 -35.0728 -35.0534 -35.0331
   -35.0252 -35.0113 -34.9960 -34.9873 -34.9813 -34.9694 -34.9632 -34.9548
   -34.9372 -34.9180 -34.9088 -34.9082 -34.9009 -34.8984 -34.8907 -34.8787
   -34.8728 -34.8714 -34.8612 -34.8451 -34.8361 -34.8329 -34.8312 -34.8276
   -34.8266 -34.8217 -34.8190 -34.8187   9.2207   9.6030  12.5574  12.6283
    12.6534  12.7357  12.8532  12.8556  12.9313  13.1759  13.4969  13.5852
    13.7158  13.9671  13.9908  14.0530  14.0772  14.3147  14.4601  14.5915
    14.8036  14.8276  14.9428  15.0607  15.1700  15.2904  15.3984  15.4340
    15.4420  15.4670  15.4750  15.4863  15.5065  15.5072  15.5646  15.7470
    15.8452  15.8634  15.9401  15.9424  16.0496  16.1662  16.2590  16.3070
    16.3533  16.4931  16.6676  16.9573  17.0787  17.2666  17.3602  17.4179
    17.4775  17.4886  17.5890  17.6338  17.6670  17.7973  17.7975  17.8325
    17.8869  17.9279  18.0318  18.2242  18.2353  18.3079  18.3255  18.3464
    18.3676  18.3750  18.3938  18.4067  18.4983  18.5396  18.5656  18.5895
    18.6423  18.7099  18.7712  18.7989  18.8359  18.9376  19.0067  19.0270
    19.0427

          k = 0.0000 0.2500 0.2500 (  6500 PWs)   bands (ev):

   -86.7122 -68.9470 -68.9359 -68.9332 -68.8772 -68.8681 -68.8672 -68.8559
   -68.8519 -68.8515 -68.8415 -68.8357 -68.8284 -68.8205 -68.8004 -46.9210
   -46.9153 -46.8472 -35.1980 -35.1811 -35.1720 -35.1543 -35.1488 -35.1470
   -35.1213 -35.1145 -35.1047 -35.0855 -35.0729 -35.0508 -35.0428 -35.0219
   -35.0062 -35.0039 -35.0015 -34.9833 -34.9808 -34.9736 -34.9679 -34.9571
   -34.9526 -34.9507 -34.9377 -34.9305 -34.9109 -34.9078 -34.8948 -34.8928
   -34.8848 -34.8632 -34.8616 -34.8513 -34.8356 -34.8271 -34.8270 -34.8203
   -34.8190 -34.8141 -34.8024 -34.7992   8.7969  10.9485  11.0812  12.4071
    12.6136  12.6277  13.0470  13.1406  13.1856  13.2350  13.3709  13.4873
    13.8208  13.8789  14.0592  14.1801  14.3352  14.3600  14.5385  14.6838
    14.7903  14.8188  14.8862  14.9310  15.0262  15.0446  15.1321  15.2344
    15.3745  15.4734  15.4950  15.6417  15.6863  15.7405  15.7742  15.8439
    15.8931  15.9210  16.0163  16.1238  16.1458  16.2027  16.2186  16.3618
    16.4769  16.6065  16.6636  16.8306  16.9405  17.1122  17.1207  17.1581
    17.3098  17.3286  17.4091  17.5189  17.6176  17.7352  17.8400  17.9707
    17.9934  18.0549  18.0857  18.1080  18.1389  18.1952  18.2177  18.2705
    18.2750  18.3479  18.3834  18.3858  18.4233  18.4256  18.4725  18.5452
    18.5664  18.7078  18.8595  18.9956  19.0354  19.5231  19.6294  19.7131
    19.7234

          k = 0.0000 0.2500-0.5000 (  6452 PWs)   bands (ev):

   -86.7122 -68.9433 -68.9385 -68.9337 -68.8759 -68.8721 -68.8667 -68.8570
   -68.8528 -68.8520 -68.8404 -68.8340 -68.8260 -68.8190 -68.8028 -46.9113
   -46.9053 -46.8335 -35.1695 -35.1637 -35.1564 -35.1536 -35.1499 -35.1433
   -35.1380 -35.1183 -35.1068 -35.0790 -35.0784 -35.0576 -35.0457 -35.0368
   -35.0245 -35.0015 -34.9981 -34.9873 -34.9791 -34.9760 -34.9727 -34.9614
   -34.9413 -34.9398 -34.9342 -34.9228 -34.9163 -34.9043 -34.8935 -34.8799
   -34.8670 -34.8548 -34.8462 -34.8375 -34.8360 -34.8303 -34.8287 -34.8257
   -34.8155 -34.8133 -34.8087 -34.8050   9.5056   9.8654  11.4871  11.8614
    12.8191  12.9128  13.0817  13.2116  13.4767  13.5329  13.5985  13.6674
    13.8040  13.9696  14.0245  14.0772  14.1833  14.3762  14.4684  14.6242
    14.7156  14.8246  14.8729  14.9871  15.0352  15.0820  15.1978  15.2338
    15.2742  15.2989  15.4199  15.4582  15.4848  15.5291  15.5919  15.6493
    15.7128  15.7657  15.8435  15.8736  16.0030  16.0396  16.0969  16.3838
    16.4113  16.4769  16.8117  16.9013  16.9927  17.1185  17.2536  17.4124
    17.4360  17.4907  17.5355  17.5577  17.5846  17.6596  17.7299  17.8373
    17.8874  17.9335  18.0142  18.0631  18.1381  18.2230  18.2345  18.2698
    18.3068  18.3337  18.3745  18.3816  18.4135  18.4186  18.4429  18.5523
    18.6450  18.7414  18.8546  19.2798  19.3097  19.3346  19.3981  20.2316
    20.3811

          k = 0.0000-0.5000-0.5000 (  6496 PWs)   bands (ev):

   -86.7122 -68.9395 -68.9389 -68.9364 -68.8748 -68.8707 -68.8703 -68.8600
   -68.8535 -68.8528 -68.8393 -68.8286 -68.8241 -68.8216 -68.8040 -46.9226
   -46.9146 -46.8437 -35.1713 -35.1599 -35.1572 -35.1570 -35.1558 -35.1489
   -35.1381 -35.1168 -35.1063 -35.0684 -35.0584 -35.0531 -35.0206 -35.0199
   -35.0158 -35.0048 -35.0001 -34.9955 -34.9905 -34.9872 -34.9831 -34.9765
   -34.9682 -34.9668 -34.9498 -34.9496 -34.9413 -34.9087 -34.8822 -34.8763
   -34.8648 -34.8534 -34.8457 -34.8373 -34.8363 -34.8306 -34.8303 -34.8282
   -34.8098 -34.8053 -34.8028 -34.7972  10.2344  10.3743  10.4164  11.0337
    13.2435  13.2552  13.3068  13.4554  13.4971  13.5892  13.6874  13.7577
    13.8991  13.9612  14.0322  14.1285  14.3948  14.4169  14.4309  14.4863
    14.6677  14.6819  14.7453  14.7897  14.8433  14.9960  15.0281  15.0904
    15.2308  15.2575  15.3098  15.3575  15.3645  15.4383  15.5357  15.5774
    15.6014  15.6801  15.7647  15.9692  15.9700  15.9960  16.0376  16.3673
    16.3988  16.6046  16.6160  16.8483  16.9051  16.9755  17.1629  17.2538
    17.2752  17.4688  17.6108  17.6338  17.7078  17.7371  17.7918  17.7938
    17.8221  17.8636  17.9156  17.9652  18.0311  18.1067  18.1284  18.1947
    18.2109  18.2629  18.2886  18.2916  18.3331  18.3906  18.4205  18.5993
    18.7509  18.8099  18.9861  19.7543  19.8739  20.0919  20.1508  20.1649
    20.2527

          k = 0.2500 0.2500 0.2500 (  6493 PWs)   bands (ev):

   -86.7122 -68.9442 -68.9357 -68.9357 -68.8769 -68.8687 -68.8687 -68.8575
   -68.8516 -68.8516 -68.8438 -68.8282 -68.8282 -68.8221 -68.8016 -46.9180
   -46.9180 -46.8432 -35.1867 -35.1577 -35.1577 -35.1442 -35.1442 -35.1438
   -35.1287 -35.1266 -35.1266 -35.0692 -35.0692 -35.0530 -35.0530 -35.0385
   -35.0339 -35.0161 -34.9954 -34.9954 -34.9793 -34.9793 -34.9728 -34.9426
   -34.9426 -34.9379 -34.9253 -34.9253 -34.9157 -34.9157 -34.9153 -34.8990
   -34.8769 -34.8518 -34.8476 -34.8476 -34.8286 -34.8286 -34.8286 -34.8195
   -34.8195 -34.8099 -34.8099 -34.8059   9.0912  11.1959  11.1959  11.3786
    12.6042  12.6042  12.7884  13.4125  13.4125  13.5046  13.6396  13.6396
    14.0298  14.0298  14.0726  14.1518  14.3776  14.3776  14.4000  14.7393
    14.7654  14.7654  14.8494  14.8494  15.0538  15.0545  15.0545  15.0547
    15.3736  15.3736  15.4499  15.4826  15.4826  15.6294  15.6294  15.6457
    15.6772  15.7461  15.7461  16.0192  16.0192  16.0563  16.0563  16.2281
    16.4939  16.6604  16.6604  16.9775  17.1447  17.1447  17.2407  17.2407
    17.3101  17.3238  17.5189  17.5682  17.5682  17.8091  17.8322  17.8322
    17.9310  18.0400  18.0400  18.1462  18.2063  18.2063  18.2497  18.2497
    18.2941  18.2941  18.3177  18.3640  18.3640  18.4853  18.4853  18.5478
    18.5936  18.5936  18.6457  18.9887  18.9887  19.0233  20.2492  20.2492
    20.3992

          k = 0.2500 0.2500-0.5000 (  6456 PWs)   bands (ev):

   -86.7122 -68.9415 -68.9377 -68.9354 -68.8756 -68.8728 -68.8693 -68.8575
   -68.8521 -68.8514 -68.8431 -68.8280 -68.8264 -68.8202 -68.8033 -46.9126
   -46.9070 -46.8335 -35.1652 -35.1624 -35.1595 -35.1492 -35.1384 -35.1332
   -35.1191 -35.1174 -35.1061 -35.0790 -35.0728 -35.0574 -35.0491 -35.0341
   -35.0254 -35.0213 -35.0169 -35.0035 -34.9902 -34.9857 -34.9836 -34.9492
   -34.9482 -34.9432 -34.9274 -34.9156 -34.9044 -34.9026 -34.8894 -34.8826
   -34.8751 -34.8524 -34.8524 -34.8428 -34.8303 -34.8280 -34.8225 -34.8223
   -34.8162 -34.8151 -34.8107 -34.8065   9.7900  10.1294  11.7370  11.7387
    11.9703  12.2441  13.1446  13.5649  13.6127  13.6993  13.7377  13.7829
    13.9478  14.0264  14.1275  14.2518  14.3074  14.3831  14.5465  14.6336
    14.6593  14.8455  14.8598  14.9040  14.9835  15.0053  15.0843  15.1112
    15.1526  15.1963  15.3499  15.3794  15.3878  15.4899  15.5032  15.5608
    15.5637  15.6543  15.6957  15.8076  15.8670  15.8996  15.9068  16.1807
    16.3965  16.5351  16.7295  16.8310  17.0007  17.0888  17.3455  17.3842
    17.4670  17.5888  17.6589  17.6844  17.7259  17.7420  17.8371  17.9159
    17.9581  17.9837  18.0747  18.1412  18.1416  18.1797  18.2310  18.2748
    18.2886  18.3091  18.3295  18.3593  18.3657  18.4250  18.4617  18.4670
    18.5656  18.5658  18.6070  18.6731  18.7100  19.7849  20.0621  20.7894
    20.8246

          k = 0.2500-0.5000-0.5000 (  6472 PWs)   bands (ev):

   -86.7122 -68.9390 -68.9387 -68.9359 -68.8753 -68.8731 -68.8725 -68.8572
   -68.8527 -68.8510 -68.8427 -68.8277 -68.8230 -68.8217 -68.8042 -46.9130
   -46.9123 -46.8383 -35.1572 -35.1489 -35.1480 -35.1404 -35.1394 -35.1329
   -35.1205 -35.1096 -35.1007 -35.0640 -35.0626 -35.0561 -35.0487 -35.0470
   -35.0442 -35.0358 -35.0341 -35.0315 -35.0050 -34.9918 -34.9874 -34.9448
   -34.9384 -34.9368 -34.9188 -34.9166 -34.9140 -34.8978 -34.8823 -34.8823
   -34.8667 -34.8549 -34.8489 -34.8459 -34.8338 -34.8318 -34.8292 -34.8251
   -34.8164 -34.8162 -34.8149 -34.8105  10.5025  10.6476  10.6931  11.2420
    12.2989  12.4999  12.5262  13.2222  13.8053  13.9388  13.9994  14.0346
    14.0786  14.1801  14.2415  14.3507  14.4487  14.4722  14.5091  14.5851
    14.6289  14.7363  14.7857  14.8384  14.8749  14.9735  15.0028  15.0700
    15.1554  15.1970  15.2557  15.2560  15.2908  15.3662  15.3828  15.4461
    15.4544  15.6275  15.6350  15.7281  15.7289  15.7671  15.7874  15.8460
    16.0452  16.5991  16.6469  16.6983  17.1023  17.1440  17.4610  17.4752
    17.6344  17.7543  17.7874  17.7892  17.8802  17.8870  17.8999  17.9253
    17.9372  17.9668  17.9876  18.0401  18.0658  18.1163  18.1662  18.1711
    18.1835  18.2159  18.2784  18.2821  18.3014  18.3239  18.3631  18.4713
    18.5276  18.5850  18.6417  19.0570  19.1409  19.1464  19.3121  21.6616
    21.8224

          k =-0.5000-0.5000-0.5000 (  6488 PWs)   bands (ev):

   -86.7122 -68.9385 -68.9385 -68.9354 -68.8763 -68.8744 -68.8744 -68.8551
   -68.8495 -68.8495 -68.8480 -68.8271 -68.8218 -68.8218 -68.8043 -46.9146
   -46.9146 -46.8403 -35.1325 -35.1325 -35.1226 -35.1176 -35.1176 -35.1147
   -35.1018 -35.0939 -35.0939 -35.0853 -35.0853 -35.0783 -35.0705 -35.0705
   -35.0674 -35.0574 -35.0574 -35.0554 -35.0147 -34.9879 -34.9879 -34.9372
   -34.9372 -34.9199 -34.8876 -34.8862 -34.8862 -34.8855 -34.8855 -34.8777
   -34.8689 -34.8554 -34.8554 -34.8488 -34.8400 -34.8388 -34.8388 -34.8319
   -34.8319 -34.8306 -34.8256 -34.8256  11.1355  11.3152  11.3587  11.3587
    11.5339  11.5881  11.5881  12.7252  14.0088  14.0088  14.1692  14.1692
    14.2456  14.5578  14.5580  14.5580  14.5919  14.5919  14.6338  14.6743
    14.6743  14.8350  14.8604  14.8604  14.9073  15.0845  15.0845  15.1497
    15.1846  15.1884  15.1884  15.1945  15.1945  15.2143  15.2494  15.2494
    15.2573  15.2573  15.2623  15.2965  15.4623  15.4623  15.4949  15.7667
    15.7667  16.5462  16.6638  16.6638  17.2355  17.2355  17.5761  17.5761
    17.8056  18.0607  18.0680  18.0680  18.0741  18.0741  18.0897  18.0897
    18.1006  18.1175  18.1175  18.1216  18.1216  18.1324  18.1412  18.1614
    18.1614  18.1663  18.1896  18.1896  18.1991  18.3005  18.3005  18.3566
    18.3566  18.3922  18.4946  18.5910  18.5910  18.6077  18.6966  23.6096
    23.6935

          k =-0.2500 0.0000 0.2500 (  6500 PWs)   bands (ev):

   -86.7122 -68.9477 -68.9345 -68.9337 -68.8768 -68.8701 -68.8662 -68.8551
   -68.8528 -68.8509 -68.8412 -68.8345 -68.8312 -68.8191 -68.8005 -46.9221
   -46.9188 -46.8425 -35.1935 -35.1882 -35.1854 -35.1628 -35.1450 -35.1444
   -35.1175 -35.1136 -35.0877 -35.0694 -35.0631 -35.0546 -35.0408 -35.0227
   -35.0158 -35.0040 -34.9916 -34.9886 -34.9824 -34.9799 -34.9749 -34.9704
   -34.9605 -34.9459 -34.9309 -34.9220 -34.9194 -34.9131 -34.8994 -34.8954
   -34.8856 -34.8619 -34.8584 -34.8466 -34.8370 -34.8277 -34.8260 -34.8202
   -34.8134 -34.8088 -34.8074 -34.7979   8.7985  10.8737  11.1617  12.4000
    12.6069  12.6230  13.0718  13.1646  13.1684  13.3081  13.3351  13.4487
    13.8000  13.8830  13.9893  14.1694  14.3127  14.4491  14.5201  14.7301
    14.7625  14.8029  14.8763  14.9104  15.0066  15.1155  15.1702  15.3278
    15.3859  15.4498  15.5085  15.5990  15.6357  15.7256  15.7696  15.8124
    15.9160  15.9315  16.0087  16.0992  16.1388  16.1968  16.3096  16.4143
    16.4795  16.4928  16.7005  16.8279  16.8978  16.9535  17.1257  17.2334
    17.2704  17.3325  17.4086  17.6188  17.6994  17.7799  17.8782  17.9260
    17.9421  18.0041  18.0759  18.1128  18.1365  18.2091  18.2150  18.2575
    18.2714  18.3085  18.3617  18.3843  18.4336  18.4737  18.4925  18.5265
    18.5488  18.6204  18.9991  19.0121  19.0485  19.4206  19.5182  19.7246
    19.8496

          k = 0.2500-0.2500 0.2500 (  6493 PWs)   bands (ev):

   -86.7122 -68.9456 -68.9357 -68.9339 -68.8765 -68.8708 -68.8687 -68.8552
   -68.8535 -68.8516 -68.8407 -68.8330 -68.8282 -68.8192 -68.8019 -46.9180
   -46.9176 -46.8436 -35.1796 -35.1741 -35.1718 -35.1520 -35.1435 -35.1396
   -35.1297 -35.1137 -35.0883 -35.0712 -35.0635 -35.0583 -35.0450 -35.0380
   -35.0314 -35.0262 -35.0163 -34.9992 -34.9974 -34.9809 -34.9758 -34.9415
   -34.9407 -34.9312 -34.9240 -34.9216 -34.9151 -34.9101 -34.9066 -34.8991
   -34.8789 -34.8585 -34.8478 -34.8466 -34.8360 -34.8265 -34.8217 -34.8178
   -34.8158 -34.8114 -34.8107 -34.8086   9.0944  11.0966  11.1967  11.4877
    12.5542  12.5913  12.8455  13.4459  13.4997  13.5361  13.6147  13.6181
    13.9236  13.9425  14.0448  14.2102  14.2890  14.3520  14.5088  14.6157
    14.7839  14.8209  14.8425  14.9241  14.9663  15.0478  15.1528  15.2759
    15.3130  15.3359  15.3893  15.4677  15.5265  15.5660  15.6113  15.7129
    15.7527  15.7935  15.8429  15.8698  16.0114  16.0242  16.0655  16.2482
    16.5149  16.5187  16.6497  16.8344  16.8841  17.1095  17.1616  17.4125
    17.4414  17.4862  17.5285  17.5955  17.6918  17.7769  17.8509  17.9374
    17.9678  17.9767  18.0677  18.0924  18.1044  18.2070  18.2428  18.2654
    18.2744  18.3007  18.3392  18.3658  18.4409  18.4642  18.4782  18.5207
    18.5711  18.5979  18.6270  18.9668  18.9720  19.0347  20.2045  20.2563
    20.4466

          k = 0.2500-0.2500-0.5000 (  6456 PWs)   bands (ev):

   -86.7122 -68.9421 -68.9385 -68.9339 -68.8757 -68.8729 -68.8699 -68.8558
   -68.8539 -68.8514 -68.8409 -68.8324 -68.8238 -68.8198 -68.8035 -46.9089
   -46.9083 -46.8360 -35.1628 -35.1566 -35.1545 -35.1521 -35.1481 -35.1297
   -35.1258 -35.1081 -35.0926 -35.0795 -35.0755 -35.0677 -35.0553 -35.0480
   -35.0310 -35.0196 -35.0161 -34.9995 -34.9959 -34.9898 -34.9827 -34.9531
   -34.9408 -34.9326 -34.9168 -34.9054 -34.9047 -34.8991 -34.8971 -34.8791
   -34.8769 -34.8524 -34.8521 -34.8439 -34.8341 -34.8312 -34.8234 -34.8211
   -34.8187 -34.8136 -34.8118 -34.8080   9.7907  10.1321  11.6605  11.8081
    11.9263  12.2995  13.1382  13.5499  13.6410  13.7380  13.8172  13.8656
    13.8924  13.9379  14.1106  14.1485  14.3108  14.3985  14.4693  14.5880
    14.7381  14.8298  14.8958  14.9207  14.9662  15.0059  15.0831  15.1484
    15.1748  15.2462  15.3331  15.4176  15.4268  15.4728  15.4802  15.5187
    15.6052  15.6715  15.6933  15.7848  15.8234  15.8499  15.9168  16.2428
    16.3384  16.5801  16.6996  16.8084  16.9540  16.9939  17.3742  17.4430
    17.4793  17.5152  17.6363  17.7247  17.7915  17.7962  17.8481  17.9253
    17.9793  18.0107  18.0325  18.0921  18.1590  18.2002  18.2200  18.2743
    18.3198  18.3292  18.3470  18.3492  18.3963  18.4326  18.4485  18.5272
    18.5593  18.5756  18.5855  18.6074  18.6838  19.7710  20.0344  20.7505
    20.8271

     the Fermi energy is    16.2203 ev

!    total energy              =   -3807.98417637 Ry
     estimated scf accuracy    <       0.00000090 Ry
     smearing contrib. (-TS)   =       0.01645477 Ry
     internal energy E=F+TS    =   -3808.00063114 Ry

     The total energy is F=E-TS. E is the sum of the following terms:
     one-electron contribution =   -1981.16003373 Ry
     hartree contribution      =    1116.74193406 Ry
     xc contribution           =    -422.90419925 Ry
     ewald contribution        =   -2520.67833223 Ry

     total magnetization       =    36.55 Bohr mag/cell
     absolute magnetization    =    38.96 Bohr mag/cell

     convergence has been achieved in  17 iterations

     negative rho (up, down):  0.000E+00 4.313E-03

     Forces acting on atoms (cartesian axes, Ry/au):

     atom    1 type  2   force =    -0.00598716   -0.00598716   -0.00598716
     atom    2 type  1   force =    -0.00561901    0.00167404    0.00167404
     atom    3 type  1   force =     0.00167404   -0.00561901    0.00167404
     atom    4 type  1   force =     0.00199167    0.00199167   -0.00153758
     atom    5 type  1   force =     0.00167404    0.00167404   -0.00561901
     atom    6 type  1   force =     0.00199167   -0.00153758    0.00199167
     atom    7 type  1   force =    -0.00153758    0.00199167    0.00199167
     atom    8 type  1   force =    -0.00495831   -0.00495831   -0.00495831
     atom    9 type  1   force =     0.01139657   -0.00921585   -0.00921585
     atom   10 type  1   force =    -0.00921585    0.01139657   -0.00921585
     atom   11 type  1   force =     0.00724970    0.00724970   -0.01021705
     atom   12 type  1   force =    -0.00921585   -0.00921585    0.01139657
     atom   13 type  1   force =     0.00724970   -0.01021705    0.00724970
     atom   14 type  1   force =    -0.01021705    0.00724970    0.00724970
     atom   15 type  1   force =     0.01352341    0.01352341    0.01352341

     Total force =     0.048991     Total SCF correction =     0.002223
     Energy error            =      2.9E-03 Ry
     Gradient error          =      1.4E-02 Ry/Bohr

     number of scf cycles    =   2
     number of bfgs steps    =   1

     energy             old  =   -3807.9812645041 Ry
     energy             new  =   -3807.9841763707 Ry

     CASE: energy            _new < energy            _old


     WARNING: bfgs curvature condition failed, Theta= 0.916
     new trust radius        =       0.0295583776 bohr
     new conv_thr            =       0.0000001352 Ry


ATOMIC_POSITIONS (crystal)
Ni               0.2487245064        0.2487245064        0.2487245064
Fe               0.4987460183        0.0003522977        0.0003522977
Fe               0.0003522977        0.4987460183        0.0003522977
Fe               0.5004043827        0.5004043827       -0.0003093658
Fe               0.0003522977        0.0003522977        0.4987460183
Fe               0.5004043827       -0.0003093658        0.5004043827
Fe              -0.0003093658        0.5004043827        0.5004043827
Fe               0.4988142829        0.4988142829        0.4988142829
Fe               0.7525441569        0.2479803503        0.2479803503
Fe               0.2479803503        0.7525441569        0.2479803503
Fe               0.7516354384        0.7516354384        0.2477277394
Fe               0.2479803503        0.2479803503        0.7525441569
Fe               0.7516354384        0.2477277394        0.7516354384
Fe               0.2477277394        0.7516354384        0.7516354384
Fe               0.7530077236        0.7530077236        0.7530077236



     Writing config-only to output data dir ./outdir/fe15_ni1_start.save/ :
     XML data file
     NEW-OLD atomic charge density approx. for the potential

     Check: negative core charge=   -0.000004

     negative rho (up, down):  0.000E+00 3.888E-03
     Generating pointlists ...

     total cpu time spent up to now is    46814.5 secs

     per-process dynamical memory:   182.8 Mb

     Self-consistent Calculation

     iteration #  1     ecut=    45.00 Ry     beta= 0.10
     Davidson diagonalization with overlap
     ethr =  1.00E-06,  avg # of iterations =  8.0

     negative rho (up, down):  0.000E+00 3.826E-03

     total cpu time spent up to now is    48631.7 secs

     total energy              =   -3807.98705779 Ry
     estimated scf accuracy    <       0.00885804 Ry

     total magnetization       =    36.58 Bohr mag/cell
     absolute magnetization    =    39.00 Bohr mag/cell

     iteration #  2     ecut=    45.00 Ry     beta= 0.10
     Davidson diagonalization with overlap
     ethr =  3.66E-06,  avg # of iterations =  2.0

     negative rho (up, down):  0.000E+00 3.828E-03

     total cpu time spent up to now is    49399.8 secs

     total energy              =   -3807.98598451 Ry
     estimated scf accuracy    <       0.06099899 Ry

     total magnetization       =    36.57 Bohr mag/cell
     absolute magnetization    =    39.08 Bohr mag/cell

     iteration #  3     ecut=    45.00 Ry     beta= 0.10
     Davidson diagonalization with overlap
