nohup: ignoring input

     Program PWSCF v.7.5 starts on 15Jun2026 at  1:34:23 

     This program is part of the open-source Quantum ESPRESSO suite
     for quantum simulation of materials; please cite
         "P. Giannozzi et al., J. Phys.:Condens. Matter 21 395502 (2009);
         "P. Giannozzi et al., J. Phys.:Condens. Matter 29 465901 (2017);
         "P. Giannozzi et al., J. Chem. Phys. 152 154105 (2020);
          URL http://www.quantum-espresso.org", 
     in publications or presentations arising from this work. More details at
     http://www.quantum-espresso.org/quote

     Parallel version (MPI & OpenMP), running on       6 processor cores
     Number of MPI processes:                 3
     Threads/MPI process:                     2

     MPI processes distributed on     1 nodes
     6418 MiB available memory on the printing compute node when the environment starts

     Reading input from fe54_3ni_clustered.in

     Current dimensions of program PWSCF are:
     Max number of different atomic species (ntypx) = 10
     Max number of k-points (npk) =  40000
     Max angular momentum in pseudopotentials (lmaxx) =  4
     file Fe.pbe-spn-rrkjus_psl.1.0.0.UPF: wavefunction(s)  3P 3D renormalized
     file Ni.pbe-spn-rrkjus_psl.1.0.0.UPF: wavefunction(s)  3P 3D renormalized

     R & G space division:  proc/nbgrp/npool/nimage =       3
     Subspace diagonalization in iterative solution of the eigenvalue problem:
     a serial algorithm will be used


     Parallelization info
     --------------------
     sticks:   dense  smooth     PW     G-vecs:    dense   smooth      PW
     Min        2524    1258    335               164892    58200    8037
     Max        2525    1260    335               164895    58203    8037
     Sum        7573    3777   1005               494679   174605   24111

     Using Slab Decomposition



     bravais-lattice index     =            1
     lattice parameter (alat)  =      16.2480  a.u.
     unit-cell volume          =    4289.4314 (a.u.)^3
     number of atoms/cell      =           54
     number of atomic types    =            2
     number of electrons       =       870.00
     number of Kohn-Sham states=          522
     kinetic-energy cutoff     =      45.0000  Ry
     charge density cutoff     =     360.0000  Ry
     scf convergence threshold =      1.0E-06
     mixing beta               =       0.3000
     number of iterations used =            8  local-TF  mixing
     energy convergence thresh.=      1.0E-04
     force convergence thresh. =      1.0E-03
     Exchange-correlation= PBE
                           (   1   4   3   4   0   0   0)
     nstep                     =           50


     celldm(1)=  16.248000  celldm(2)=   0.000000  celldm(3)=   0.000000
     celldm(4)=   0.000000  celldm(5)=   0.000000  celldm(6)=   0.000000

     crystal axes: (cart. coord. in units of alat)
               a(1) = (   1.000000   0.000000   0.000000 )  
               a(2) = (   0.000000   1.000000   0.000000 )  
               a(3) = (   0.000000   0.000000   1.000000 )  

     reciprocal axes: (cart. coord. in units 2 pi/alat)
               b(1) = (  1.000000  0.000000  0.000000 )  
               b(2) = (  0.000000  1.000000  0.000000 )  
               b(3) = (  0.000000  0.000000  1.000000 )  


     PseudoPot. # 1 for Fe read from file:
     ./pseudo/Fe.pbe-spn-rrkjus_psl.1.0.0.UPF
     MD5 check sum: 72ea77fed8e64ab3a2ccf2804dfc1862
     Pseudo is Ultrasoft + core correction, Zval = 16.0
     Generated using &quot;atomic&quot; code by A. Dal Corso  v.6.3
     Using radial grid of 1191 points,  6 beta functions with: 
                l(1) =   0
                l(2) =   0
                l(3) =   1
                l(4) =   1
                l(5) =   2
                l(6) =   2
     Q(r) pseudized with 0 coefficients 


     PseudoPot. # 2 for Ni read from file:
     ./pseudo/Ni.pbe-spn-rrkjus_psl.1.0.0.UPF
     MD5 check sum: 8b3fc9aac6dafe35f580d41bb18c3945
     Pseudo is Ultrasoft + core correction, Zval = 18.0
     Generated using &quot;atomic&quot; code by A. Dal Corso  v.6.3
     Using radial grid of 1195 points,  6 beta functions with: 
                l(1) =   0
                l(2) =   0
                l(3) =   1
                l(4) =   1
                l(5) =   2
                l(6) =   2
     Q(r) pseudized with 0 coefficients 


     atomic species   valence    mass     pseudopotential
     Fe               16.00    55.84500     Fe( 1.00)
     Ni               18.00    58.69300     Ni( 1.00)

     Starting magnetic structure 
     atomic species   magnetization
     Fe              0.500
     Ni              0.200

      4 Sym. Ops. (no inversion) found



   Cartesian axes

     site n.     atom                  positions (alat units)
         1        Ni     tau(   1) = (   0.0000000   0.0000000   0.0000000  )
         2        Ni     tau(   2) = (   0.1666670   0.1666670   0.1666670  )
         3        Fe     tau(   3) = (   0.0000000   0.0000000   0.3333330  )
         4        Fe     tau(   4) = (   0.1666670   0.1666670   0.5000000  )
         5        Fe     tau(   5) = (   0.0000000   0.0000000   0.6666670  )
         6        Ni     tau(   6) = (   0.1666670   0.1666670   0.8333330  )
         7        Fe     tau(   7) = (   0.0000000   0.3333330   0.0000000  )
         8        Fe     tau(   8) = (   0.1666670   0.5000000   0.1666670  )
         9        Fe     tau(   9) = (   0.0000000   0.3333330   0.3333330  )
        10        Fe     tau(  10) = (   0.1666670   0.5000000   0.5000000  )
        11        Fe     tau(  11) = (   0.0000000   0.3333330   0.6666670  )
        12        Fe     tau(  12) = (   0.1666670   0.5000000   0.8333330  )
        13        Fe     tau(  13) = (   0.0000000   0.6666670   0.0000000  )
        14        Fe     tau(  14) = (   0.1666670   0.8333330   0.1666670  )
        15        Fe     tau(  15) = (   0.0000000   0.6666670   0.3333330  )
        16        Fe     tau(  16) = (   0.1666670   0.8333330   0.5000000  )
        17        Fe     tau(  17) = (   0.0000000   0.6666670   0.6666670  )
        18        Fe     tau(  18) = (   0.1666670   0.8333330   0.8333330  )
        19        Fe     tau(  19) = (   0.3333330   0.0000000   0.0000000  )
        20        Fe     tau(  20) = (   0.5000000   0.1666670   0.1666670  )
        21        Fe     tau(  21) = (   0.3333330   0.0000000   0.3333330  )
        22        Fe     tau(  22) = (   0.5000000   0.1666670   0.5000000  )
        23        Fe     tau(  23) = (   0.3333330   0.0000000   0.6666670  )
        24        Fe     tau(  24) = (   0.5000000   0.1666670   0.8333330  )
        25        Fe     tau(  25) = (   0.3333330   0.3333330   0.0000000  )
        26        Fe     tau(  26) = (   0.5000000   0.5000000   0.1666670  )
        27        Fe     tau(  27) = (   0.3333330   0.3333330   0.3333330  )
        28        Fe     tau(  28) = (   0.5000000   0.5000000   0.5000000  )
        29        Fe     tau(  29) = (   0.3333330   0.3333330   0.6666670  )
        30        Fe     tau(  30) = (   0.5000000   0.5000000   0.8333330  )
        31        Fe     tau(  31) = (   0.3333330   0.6666670   0.0000000  )
        32        Fe     tau(  32) = (   0.5000000   0.8333330   0.1666670  )
        33        Fe     tau(  33) = (   0.3333330   0.6666670   0.3333330  )
        34        Fe     tau(  34) = (   0.5000000   0.8333330   0.5000000  )
        35        Fe     tau(  35) = (   0.3333330   0.6666670   0.6666670  )
        36        Fe     tau(  36) = (   0.5000000   0.8333330   0.8333330  )
        37        Fe     tau(  37) = (   0.6666670   0.0000000   0.0000000  )
        38        Fe     tau(  38) = (   0.8333330   0.1666670   0.1666670  )
        39        Fe     tau(  39) = (   0.6666670   0.0000000   0.3333330  )
        40        Fe     tau(  40) = (   0.8333330   0.1666670   0.5000000  )
        41        Fe     tau(  41) = (   0.6666670   0.0000000   0.6666670  )
        42        Fe     tau(  42) = (   0.8333330   0.1666670   0.8333330  )
        43        Fe     tau(  43) = (   0.6666670   0.3333330   0.0000000  )
        44        Fe     tau(  44) = (   0.8333330   0.5000000   0.1666670  )
        45        Fe     tau(  45) = (   0.6666670   0.3333330   0.3333330  )
        46        Fe     tau(  46) = (   0.8333330   0.5000000   0.5000000  )
        47        Fe     tau(  47) = (   0.6666670   0.3333330   0.6666670  )
        48        Fe     tau(  48) = (   0.8333330   0.5000000   0.8333330  )
        49        Fe     tau(  49) = (   0.6666670   0.6666670   0.0000000  )
        50        Fe     tau(  50) = (   0.8333330   0.8333330   0.1666670  )
        51        Fe     tau(  51) = (   0.6666670   0.6666670   0.3333330  )
        52        Fe     tau(  52) = (   0.8333330   0.8333330   0.5000000  )
        53        Fe     tau(  53) = (   0.6666670   0.6666670   0.6666670  )
        54        Fe     tau(  54) = (   0.8333330   0.8333330   0.8333330  )

     number of k points=     8  Marzari-Vanderbilt smearing, width (Ry)=  0.0200
                       cart. coord. in units 2pi/alat
        k(    1) = (   0.0000000   0.0000000   0.0000000), wk =   0.0370370
        k(    2) = (   0.0000000   0.0000000   0.3333333), wk =   0.0740741
        k(    3) = (   0.0000000   0.3333333   0.3333333), wk =   0.2962963
        k(    4) = (   0.3333333   0.3333333   0.3333333), wk =   0.1481481
        k(    5) = (   0.3333333   0.0000000   0.0000000), wk =   0.1481481
        k(    6) = (   0.3333333  -0.3333333   0.0000000), wk =   0.0740741
        k(    7) = (  -0.3333333  -0.3333333   0.0000000), wk =   0.0740741
        k(    8) = (   0.3333333  -0.3333333   0.3333333), wk =   0.1481481

     Dense  grid:   494679 G-vectors     FFT dimensions: ( 100, 100, 100)

     Smooth grid:   174605 G-vectors     FFT dimensions: (  72,  72,  72)

     Estimated max dynamical RAM per process >       2.06 GB

     Estimated total dynamical RAM >       6.18 GB

     Check: negative core charge=   -0.000004
     Generating pointlists ...
     new r_m :   0.1191 (alat units)  1.9348 (a.u.) for type    1
     new r_m :   0.1191 (alat units)  1.9348 (a.u.) for type    2

     Initial potential from superposition of free atoms

     starting charge     869.9769, renormalised to     870.0000
     Starting wfcs are  540 randomized atomic wfcs
