
     Program PWSCF v.7.5 starts on 12Jun2026 at 23: 0:51 

     This program is part of the open-source Quantum ESPRESSO suite
     for quantum simulation of materials; please cite
         "P. Giannozzi et al., J. Phys.:Condens. Matter 21 395502 (2009);
         "P. Giannozzi et al., J. Phys.:Condens. Matter 29 465901 (2017);
         "P. Giannozzi et al., J. Chem. Phys. 152 154105 (2020);
          URL http://www.quantum-espresso.org", 
     in publications or presentations arising from this work. More details at
     http://www.quantum-espresso.org/quote

     Parallel version (MPI & OpenMP), running on      12 processor cores
     Number of MPI processes:                 1
     Threads/MPI process:                    12

     MPI processes distributed on     1 nodes
     1699 MiB available memory on the printing compute node when the environment starts

     Reading input from fe_bcc.scf.in

     Current dimensions of program PWSCF are:
     Max number of different atomic species (ntypx) = 10
     Max number of k-points (npk) =  40000
     Max angular momentum in pseudopotentials (lmaxx) =  4
     file Fe.pbe-spn-rrkjus_psl.1.0.0.UPF: wavefunction(s)  3P 3D renormalized

     Subspace diagonalization in iterative solution of the eigenvalue problem:
     a serial algorithm will be used


     G-vector sticks info
     --------------------
     sticks:   dense  smooth     PW     G-vecs:    dense   smooth      PW
     Sum         599     291     99                 9189     3151     627

     Using Slab Decomposition



     bravais-lattice index     =            3
     lattice parameter (alat)  =       5.4100  a.u.
     unit-cell volume          =      79.1702 (a.u.)^3
     number of atoms/cell      =            1
     number of atomic types    =            1
     number of electrons       =        16.00
     number of Kohn-Sham states=           12
     kinetic-energy cutoff     =      45.0000  Ry
     charge density cutoff     =     360.0000  Ry
     scf convergence threshold =      1.0E-08
     mixing beta               =       0.7000
     number of iterations used =            8  plain     mixing
     Exchange-correlation= PBE
                           (   1   4   3   4   0   0   0)

     celldm(1)=   5.410000  celldm(2)=   0.000000  celldm(3)=   0.000000
     celldm(4)=   0.000000  celldm(5)=   0.000000  celldm(6)=   0.000000

     crystal axes: (cart. coord. in units of alat)
               a(1) = (   0.500000   0.500000   0.500000 )  
               a(2) = (  -0.500000   0.500000   0.500000 )  
               a(3) = (  -0.500000  -0.500000   0.500000 )  

     reciprocal axes: (cart. coord. in units 2 pi/alat)
               b(1) = (  1.000000  0.000000  1.000000 )  
               b(2) = ( -1.000000  1.000000  0.000000 )  
               b(3) = (  0.000000 -1.000000  1.000000 )  


     PseudoPot. # 1 for Fe read from file:
     ./pseudo/Fe.pbe-spn-rrkjus_psl.1.0.0.UPF
     MD5 check sum: 72ea77fed8e64ab3a2ccf2804dfc1862
     Pseudo is Ultrasoft + core correction, Zval = 16.0
     Generated using &quot;atomic&quot; code by A. Dal Corso  v.6.3
     Using radial grid of 1191 points,  6 beta functions with: 
                l(1) =   0
                l(2) =   0
                l(3) =   1
                l(4) =   1
                l(5) =   2
                l(6) =   2
     Q(r) pseudized with 0 coefficients 


     atomic species   valence    mass     pseudopotential
     Fe               16.00    55.84500     Fe( 1.00)

     Starting magnetic structure 
     atomic species   magnetization
     Fe              0.500

     48 Sym. Ops., with inversion, found



   Cartesian axes

     site n.     atom                  positions (alat units)
         1        Fe     tau(   1) = (   0.0000000   0.0000000   0.0000000  )

     number of k points=    72  Marzari-Vanderbilt smearing, width (Ry)=  0.0200
                       cart. coord. in units 2pi/alat
        k(    1) = (   0.0000000   0.0000000   0.0000000), wk =   0.0005787
        k(    2) = (   0.0000000  -0.0833333   0.0833333), wk =   0.0069444
        k(    3) = (   0.0000000  -0.1666667   0.1666667), wk =   0.0069444
        k(    4) = (   0.0000000  -0.2500000   0.2500000), wk =   0.0069444
        k(    5) = (   0.0000000  -0.3333333   0.3333333), wk =   0.0069444
        k(    6) = (   0.0000000  -0.4166667   0.4166667), wk =   0.0069444
        k(    7) = (   0.0000000   0.5000000  -0.5000000), wk =   0.0034722
        k(    8) = (  -0.0833333  -0.0833333   0.1666667), wk =   0.0138889
        k(    9) = (  -0.0833333  -0.1666667   0.2500000), wk =   0.0277778
        k(   10) = (  -0.0833333  -0.2500000   0.3333333), wk =   0.0277778
        k(   11) = (  -0.0833333  -0.3333333   0.4166667), wk =   0.0277778
        k(   12) = (  -0.0833333   0.5833333  -0.5000000), wk =   0.0277778
        k(   13) = (  -0.1666667  -0.1666667   0.3333333), wk =   0.0138889
        k(   14) = (  -0.1666667  -0.2500000   0.4166667), wk =   0.0277778
        k(   15) = (  -0.1666667   0.6666667  -0.5000000), wk =   0.0277778
        k(   16) = (  -0.1666667   0.5833333  -0.4166667), wk =   0.0138889
        k(   17) = (  -0.2500000   0.7500000  -0.5000000), wk =   0.0138889
        k(   18) = (  -0.2500000   0.6666667  -0.4166667), wk =   0.0277778
        k(   19) = (  -0.3333333   0.6666667  -0.3333333), wk =   0.0046296
        k(   20) = (   0.0000000   0.0000000   0.1666667), wk =   0.0034722
        k(   21) = (   0.0000000  -0.0833333   0.2500000), wk =   0.0138889
        k(   22) = (   0.0000000  -0.1666667   0.3333333), wk =   0.0138889
        k(   23) = (   0.0000000  -0.2500000   0.4166667), wk =   0.0138889
        k(   24) = (   0.0000000  -0.3333333   0.5000000), wk =   0.0138889
        k(   25) = (   0.0000000   0.5833333  -0.4166667), wk =   0.0069444
        k(   26) = (  -0.0833333  -0.0833333   0.3333333), wk =   0.0138889
        k(   27) = (  -0.0833333  -0.1666667   0.4166667), wk =   0.0277778
        k(   28) = (  -0.0833333  -0.2500000   0.5000000), wk =   0.0277778
        k(   29) = (  -0.0833333   0.6666667  -0.4166667), wk =   0.0277778
        k(   30) = (  -0.1666667   0.1666667   0.1666667), wk =   0.0046296
        k(   31) = (  -0.1666667  -0.1666667   0.5000000), wk =   0.0138889
        k(   32) = (  -0.1666667   0.7500000  -0.4166667), wk =   0.0277778
        k(   33) = (  -0.1666667   0.6666667  -0.3333333), wk =   0.0138889
        k(   34) = (  -0.2500000   0.2500000   0.1666667), wk =   0.0138889
        k(   35) = (  -0.2500000   0.7500000  -0.3333333), wk =   0.0138889
        k(   36) = (  -0.3333333   0.3333333   0.1666667), wk =   0.0138889
        k(   37) = (  -0.3333333   0.2500000   0.2500000), wk =   0.0138889
        k(   38) = (   0.5833333  -0.5833333   0.1666667), wk =   0.0138889
        k(   39) = (   0.5833333  -0.6666667   0.2500000), wk =   0.0277778
        k(   40) = (   0.5000000  -0.5000000   0.1666667), wk =   0.0069444
        k(   41) = (   0.5000000  -0.5833333   0.2500000), wk =   0.0277778
        k(   42) = (   0.5000000  -0.6666667   0.3333333), wk =   0.0138889
        k(   43) = (   0.4166667  -0.5833333   0.3333333), wk =   0.0138889
        k(   44) = (   0.0000000   0.0000000   0.3333333), wk =   0.0034722
        k(   45) = (   0.0000000  -0.0833333   0.4166667), wk =   0.0138889
        k(   46) = (   0.0000000  -0.1666667   0.5000000), wk =   0.0138889
        k(   47) = (   0.0000000  -0.2500000   0.5833333), wk =   0.0138889
        k(   48) = (   0.0000000   0.6666667  -0.3333333), wk =   0.0069444
        k(   49) = (  -0.0833333  -0.0833333   0.5000000), wk =   0.0138889
        k(   50) = (  -0.0833333  -0.1666667   0.5833333), wk =   0.0277778
        k(   51) = (  -0.0833333   0.7500000  -0.3333333), wk =   0.0277778
        k(   52) = (  -0.1666667   0.8333333  -0.3333333), wk =   0.0138889
        k(   53) = (  -0.1666667   0.7500000  -0.2500000), wk =   0.0138889
        k(   54) = (   0.6666667  -0.6666667   0.3333333), wk =   0.0046296
        k(   55) = (   0.5833333  -0.5833333   0.3333333), wk =   0.0138889
        k(   56) = (   0.5000000  -0.5000000   0.3333333), wk =   0.0069444
        k(   57) = (   0.5000000  -0.5833333   0.4166667), wk =   0.0138889
        k(   58) = (   0.0000000   0.0000000   0.5000000), wk =   0.0034722
        k(   59) = (   0.0000000  -0.0833333   0.5833333), wk =   0.0138889
        k(   60) = (   0.0000000  -0.1666667   0.6666667), wk =   0.0138889
        k(   61) = (   0.0000000   0.7500000  -0.2500000), wk =   0.0069444
        k(   62) = (  -0.0833333  -0.0833333   0.6666667), wk =   0.0138889
        k(   63) = (  -0.0833333   0.8333333  -0.2500000), wk =   0.0277778
        k(   64) = (  -0.1666667   0.8333333  -0.1666667), wk =   0.0046296
        k(   65) = (   0.5000000  -0.5000000   0.5000000), wk =   0.0011574
        k(   66) = (   0.0000000   0.0000000   0.6666667), wk =   0.0034722
        k(   67) = (   0.0000000  -0.0833333   0.7500000), wk =   0.0138889
        k(   68) = (   0.0000000   0.8333333  -0.1666667), wk =   0.0069444
        k(   69) = (  -0.0833333   0.9166667  -0.1666667), wk =   0.0138889
        k(   70) = (   0.0000000   0.0000000   0.8333333), wk =   0.0034722
        k(   71) = (   0.0000000   0.9166667  -0.0833333), wk =   0.0069444
        k(   72) = (   0.0000000   0.0000000  -1.0000000), wk =   0.0005787

     Dense  grid:     9189 G-vectors     FFT dimensions: (  30,  30,  30)

     Smooth grid:     3151 G-vectors     FFT dimensions: (  20,  20,  20)

     Estimated max dynamical RAM per process >      48.18 MB

     Check: negative core charge=   -0.000004
     Generating pointlists ...
     new r_m :   0.3572 (alat units)  1.9326 (a.u.) for type    1

     Initial potential from superposition of free atoms

     starting charge      15.9996, renormalised to      16.0000
     Starting wfcs are   10 randomized atomic wfcs +    2 random wfcs

     total cpu time spent up to now is        2.0 secs

     per-process dynamical memory:    34.0 Mb

     Self-consistent Calculation

     iteration #  1     ecut=    45.00 Ry     beta= 0.70
     Davidson diagonalization with overlap
     ethr =  1.00E-02,  avg # of iterations =  4.5

     negative rho (up, down):  0.000E+00 3.259E-04

     total cpu time spent up to now is       10.2 secs

     total energy              =    -247.64495127 Ry
     estimated scf accuracy    <       0.55132945 Ry

     total magnetization       =     3.52 Bohr mag/cell
     absolute magnetization    =     3.56 Bohr mag/cell

     iteration #  2     ecut=    45.00 Ry     beta= 0.70
     Davidson diagonalization with overlap
     ethr =  3.45E-03,  avg # of iterations =  1.1

     negative rho (up, down):  0.000E+00 3.208E-04

     total cpu time spent up to now is       14.1 secs

     total energy              =    -247.71131885 Ry
     estimated scf accuracy    <       0.15666264 Ry

     total magnetization       =     2.88 Bohr mag/cell
     absolute magnetization    =     3.05 Bohr mag/cell

     iteration #  3     ecut=    45.00 Ry     beta= 0.70
     Davidson diagonalization with overlap
     ethr =  9.79E-04,  avg # of iterations =  2.2

     negative rho (up, down):  0.000E+00 4.213E-04

     total cpu time spent up to now is       19.2 secs

     total energy              =    -247.72863716 Ry
     estimated scf accuracy    <       0.21471109 Ry

     total magnetization       =     2.64 Bohr mag/cell
     absolute magnetization    =     2.81 Bohr mag/cell

     iteration #  4     ecut=    45.00 Ry     beta= 0.70
     Davidson diagonalization with overlap
     ethr =  9.79E-04,  avg # of iterations =  1.9

     negative rho (up, down):  0.000E+00 3.068E-04

     total cpu time spent up to now is       25.8 secs

     total energy              =    -247.76229223 Ry
     estimated scf accuracy    <       0.00108553 Ry

     total magnetization       =     2.44 Bohr mag/cell
     absolute magnetization    =     2.63 Bohr mag/cell

     iteration #  5     ecut=    45.00 Ry     beta= 0.70
     Davidson diagonalization with overlap
     ethr =  6.78E-06,  avg # of iterations =  3.8

     negative rho (up, down):  0.000E+00 2.687E-04

     total cpu time spent up to now is       37.2 secs

     total energy              =    -247.76324429 Ry
     estimated scf accuracy    <       0.00067236 Ry

     total magnetization       =     2.39 Bohr mag/cell
     absolute magnetization    =     2.56 Bohr mag/cell

     iteration #  6     ecut=    45.00 Ry     beta= 0.70
     Davidson diagonalization with overlap
     ethr =  4.20E-06,  avg # of iterations =  1.8

     negative rho (up, down):  0.000E+00 2.491E-04

     total cpu time spent up to now is       43.1 secs

     total energy              =    -247.76348063 Ry
     estimated scf accuracy    <       0.00020829 Ry

     total magnetization       =     2.35 Bohr mag/cell
     absolute magnetization    =     2.51 Bohr mag/cell

     iteration #  7     ecut=    45.00 Ry     beta= 0.70
     Davidson diagonalization with overlap
     ethr =  1.30E-06,  avg # of iterations =  1.5

     negative rho (up, down):  0.000E+00 2.458E-04

     total cpu time spent up to now is       46.8 secs

     total energy              =    -247.76356308 Ry
     estimated scf accuracy    <       0.00001060 Ry

     total magnetization       =     2.32 Bohr mag/cell
     absolute magnetization    =     2.48 Bohr mag/cell

     iteration #  8     ecut=    45.00 Ry     beta= 0.70
     Davidson diagonalization with overlap
     ethr =  6.63E-08,  avg # of iterations =  1.5

     negative rho (up, down):  0.000E+00 2.485E-04

     total cpu time spent up to now is       51.2 secs

     total energy              =    -247.76356264 Ry
     estimated scf accuracy    <       0.00000502 Ry

     total magnetization       =     2.32 Bohr mag/cell
     absolute magnetization    =     2.47 Bohr mag/cell

     iteration #  9     ecut=    45.00 Ry     beta= 0.70
     Davidson diagonalization with overlap
     ethr =  3.14E-08,  avg # of iterations =  2.0

     negative rho (up, down):  0.000E+00 2.476E-04

     total cpu time spent up to now is       56.0 secs

     total energy              =    -247.76356371 Ry
     estimated scf accuracy    <       0.00000016 Ry

     total magnetization       =     2.32 Bohr mag/cell
     absolute magnetization    =     2.48 Bohr mag/cell

     iteration # 10     ecut=    45.00 Ry     beta= 0.70
     Davidson diagonalization with overlap
     ethr =  1.02E-09,  avg # of iterations =  2.0

     negative rho (up, down):  0.000E+00 2.476E-04

     Magnetic moment per site  (integrated on atomic sphere of radius R)
     atom   1 (R=0.357)  charge= 14.4196  magn=  2.3895

     total cpu time spent up to now is       60.3 secs

     End of self-consistent calculation

     Number of k-points >= 100: set verbosity='high' to print the bands.

     the Fermi energy is    17.5589 ev

!    total energy              =    -247.76356384 Ry
     estimated scf accuracy    <          7.4E-09 Ry
     smearing contrib. (-TS)   =       0.00136549 Ry
     internal energy E=F+TS    =    -247.76492933 Ry

     The total energy is F=E-TS. E is the sum of the following terms:
     one-electron contribution =    -113.82094261 Ry
     hartree contribution      =      66.01369333 Ry
     xc contribution           =     -27.74996044 Ry
     ewald contribution        =    -172.20771961 Ry

     total magnetization       =     2.32 Bohr mag/cell
     absolute magnetization    =     2.47 Bohr mag/cell

     convergence has been achieved in  10 iterations

     Writing all to output data dir ./outdir/fe_bcc.save/ :
     XML data file, charge density, pseudopotentials, collected wavefunctions

     init_run     :      4.30s CPU      1.92s WALL (       1 calls)
     electrons    :    406.26s CPU     58.29s WALL (       1 calls)

     Called by init_run:
     wfcinit      :      3.56s CPU      1.28s WALL (       1 calls)
     potinit      :      0.24s CPU      0.22s WALL (       1 calls)
     hinit0       :      0.44s CPU      0.38s WALL (       1 calls)

     Called by electrons:
     c_bands      :    377.47s CPU     51.34s WALL (      10 calls)
     sum_band     :     22.27s CPU      6.31s WALL (      10 calls)
     v_of_rho     :      2.31s CPU      0.23s WALL (      11 calls)
     newd         :      3.07s CPU      0.32s WALL (      11 calls)
     mix_rho      :      0.69s CPU      0.07s WALL (      10 calls)

     Called by c_bands:
     init_us_2    :      0.70s CPU      0.26s WALL (    3024 calls)
     cegterg      :    338.63s CPU     47.37s WALL (    1440 calls)

     Called by *egterg:
     cdiaghg      :      3.03s CPU      0.57s WALL (    4668 calls)
     h_psi        :    323.35s CPU     45.95s WALL (    4812 calls)
     s_psi        :      6.80s CPU      0.71s WALL (    4812 calls)
     g_psi        :      0.33s CPU      0.08s WALL (    3228 calls)

     Called by h_psi:
     h_psi:calbec :      3.91s CPU      0.50s WALL (    4812 calls)
     vloc_psi     :    313.23s CPU     44.72s WALL (    4812 calls)
                                        0.00s GPU  (    4812 calls)
     add_vuspsi   :      0.72s CPU      0.12s WALL (    4812 calls)

     General routines
     calbec       :      3.97s CPU      0.55s WALL (    6252 calls)
     fft          :      2.22s CPU      0.40s WALL (     269 calls)
     ffts         :      0.29s CPU      0.20s WALL (      42 calls)
     fftw         :    311.57s CPU     47.26s WALL (  102410 calls)
     interpolate  :      0.34s CPU      0.21s WALL (      22 calls)

     Parallel routines

     PWSCF        :   6m51.49s CPU   1m 0.51s WALL


   This run was terminated on:  23: 1:51  12Jun2026            

=------------------------------------------------------------------------------=
   JOB DONE.
=------------------------------------------------------------------------------=
