
     Program PWSCF v.7.5 starts on 12Jun2026 at 22:52:20 

     This program is part of the open-source Quantum ESPRESSO suite
     for quantum simulation of materials; please cite
         "P. Giannozzi et al., J. Phys.:Condens. Matter 21 395502 (2009);
         "P. Giannozzi et al., J. Phys.:Condens. Matter 29 465901 (2017);
         "P. Giannozzi et al., J. Chem. Phys. 152 154105 (2020);
          URL http://www.quantum-espresso.org", 
     in publications or presentations arising from this work. More details at
     http://www.quantum-espresso.org/quote

     Parallel version (MPI & OpenMP), running on      12 processor cores
     Number of MPI processes:                 1
     Threads/MPI process:                    12

     MPI processes distributed on     1 nodes
     779 MiB available memory on the printing compute node when the environment starts

     Reading input from ni.scf.in

     Current dimensions of program PWSCF are:
     Max number of different atomic species (ntypx) = 10
     Max number of k-points (npk) =  40000
     Max angular momentum in pseudopotentials (lmaxx) =  4
     file Ni.pbe-nd-rrkjus.UPF: wavefunction(s)  4S renormalized

     Subspace diagonalization in iterative solution of the eigenvalue problem:
     a serial algorithm will be used


     G-vector sticks info
     --------------------
     sticks:   dense  smooth     PW     G-vecs:    dense   smooth      PW
     Sum         499     253     85                 7119     2565     531

     Using Slab Decomposition



     bravais-lattice index     =            2
     lattice parameter (alat)  =       6.6590  a.u.
     unit-cell volume          =      73.8188 (a.u.)^3
     number of atoms/cell      =            1
     number of atomic types    =            1
     number of electrons       =        10.00
     number of Kohn-Sham states=            9
     kinetic-energy cutoff     =      40.0000  Ry
     charge density cutoff     =     320.0000  Ry
     scf convergence threshold =      1.0E-08
     mixing beta               =       0.7000
     number of iterations used =            8  plain     mixing
     Exchange-correlation= SLA  PW   PBE  PBE
                           (   1   4   3   4   0   0   0)

     celldm(1)=   6.659000  celldm(2)=   0.000000  celldm(3)=   0.000000
     celldm(4)=   0.000000  celldm(5)=   0.000000  celldm(6)=   0.000000

     crystal axes: (cart. coord. in units of alat)
               a(1) = (  -0.500000   0.000000   0.500000 )  
               a(2) = (   0.000000   0.500000   0.500000 )  
               a(3) = (  -0.500000   0.500000   0.000000 )  

     reciprocal axes: (cart. coord. in units 2 pi/alat)
               b(1) = ( -1.000000 -1.000000  1.000000 )  
               b(2) = (  1.000000  1.000000  1.000000 )  
               b(3) = ( -1.000000  1.000000 -1.000000 )  


     PseudoPot. # 1 for Ni read from file:
     ./pseudo/Ni.pbe-nd-rrkjus.UPF
     MD5 check sum: d71bc9c4c8adef96ad6fe9664ede368e
     Pseudo is Ultrasoft + core correction, Zval = 10.0
     Generated by new atomic code, or converted to UPF format
     Using radial grid of 1203 points,  6 beta functions with: 
                l(1) =   0
                l(2) =   0
                l(3) =   1
                l(4) =   1
                l(5) =   2
                l(6) =   2
     Q(r) pseudized with 0 coefficients 


     atomic species   valence    mass     pseudopotential
     Ni               10.00    58.69340     Ni( 1.00)

     48 Sym. Ops., with inversion, found



   Cartesian axes

     site n.     atom                  positions (alat units)
         1        Ni     tau(   1) = (   0.0000000   0.0000000   0.0000000  )

     number of k points=    29  Marzari-Vanderbilt smearing, width (Ry)=  0.0200
                       cart. coord. in units 2pi/alat
        k(    1) = (   0.0000000   0.0000000   0.0000000), wk =   0.0039062
        k(    2) = (  -0.1250000   0.1250000  -0.1250000), wk =   0.0312500
        k(    3) = (  -0.2500000   0.2500000  -0.2500000), wk =   0.0312500
        k(    4) = (  -0.3750000   0.3750000  -0.3750000), wk =   0.0312500
        k(    5) = (   0.5000000  -0.5000000   0.5000000), wk =   0.0156250
        k(    6) = (   0.0000000   0.2500000   0.0000000), wk =   0.0234375
        k(    7) = (  -0.1250000   0.3750000  -0.1250000), wk =   0.0937500
        k(    8) = (  -0.2500000   0.5000000  -0.2500000), wk =   0.0937500
        k(    9) = (   0.6250000  -0.3750000   0.6250000), wk =   0.0937500
        k(   10) = (   0.5000000  -0.2500000   0.5000000), wk =   0.0937500
        k(   11) = (   0.3750000  -0.1250000   0.3750000), wk =   0.0937500
        k(   12) = (   0.2500000   0.0000000   0.2500000), wk =   0.0468750
        k(   13) = (   0.0000000   0.5000000   0.0000000), wk =   0.0234375
        k(   14) = (  -0.1250000   0.6250000  -0.1250000), wk =   0.0937500
        k(   15) = (   0.7500000  -0.2500000   0.7500000), wk =   0.0937500
        k(   16) = (   0.6250000  -0.1250000   0.6250000), wk =   0.0937500
        k(   17) = (   0.5000000   0.0000000   0.5000000), wk =   0.0468750
        k(   18) = (   0.0000000   0.7500000   0.0000000), wk =   0.0234375
        k(   19) = (   0.8750000  -0.1250000   0.8750000), wk =   0.0937500
        k(   20) = (   0.7500000   0.0000000   0.7500000), wk =   0.0468750
        k(   21) = (   0.0000000  -1.0000000   0.0000000), wk =   0.0117188
        k(   22) = (  -0.2500000   0.5000000   0.0000000), wk =   0.0937500
        k(   23) = (   0.6250000  -0.3750000   0.8750000), wk =   0.1875000
        k(   24) = (   0.5000000  -0.2500000   0.7500000), wk =   0.0937500
        k(   25) = (   0.7500000  -0.2500000   1.0000000), wk =   0.0937500
        k(   26) = (   0.6250000  -0.1250000   0.8750000), wk =   0.1875000
        k(   27) = (   0.5000000   0.0000000   0.7500000), wk =   0.0937500
        k(   28) = (  -0.2500000  -1.0000000   0.0000000), wk =   0.0468750
        k(   29) = (  -0.5000000  -1.0000000   0.0000000), wk =   0.0234375

     Dense  grid:     7119 G-vectors     FFT dimensions: (  27,  27,  27)

     Smooth grid:     2565 G-vectors     FFT dimensions: (  20,  20,  20)

     Estimated max dynamical RAM per process >      27.41 MB

     Check: negative core charge=   -0.000015

     Initial potential from superposition of free atoms

     starting charge       9.9995, renormalised to      10.0000
     Starting wfcs are    6 randomized atomic wfcs +    3 random wfcs

     total cpu time spent up to now is        1.0 secs

     per-process dynamical memory:    19.2 Mb

     Self-consistent Calculation

     iteration #  1     ecut=    40.00 Ry     beta= 0.70
     Davidson diagonalization with overlap
     ethr =  1.00E-02,  avg # of iterations =  4.7

     total cpu time spent up to now is        2.8 secs

     total energy              =     -85.72106278 Ry
     estimated scf accuracy    <       0.33072007 Ry

     iteration #  2     ecut=    40.00 Ry     beta= 0.70
     Davidson diagonalization with overlap
     ethr =  3.31E-03,  avg # of iterations =  2.1

     total cpu time spent up to now is        3.5 secs

     total energy              =     -85.78319943 Ry
     estimated scf accuracy    <       0.61341624 Ry

     iteration #  3     ecut=    40.00 Ry     beta= 0.70
     Davidson diagonalization with overlap
     ethr =  3.31E-03,  avg # of iterations =  1.6

     total cpu time spent up to now is        4.5 secs

     total energy              =     -85.88858784 Ry
     estimated scf accuracy    <       0.00003897 Ry

     iteration #  4     ecut=    40.00 Ry     beta= 0.70
     Davidson diagonalization with overlap
     ethr =  3.90E-07,  avg # of iterations =  5.7

     total cpu time spent up to now is        6.8 secs

     total energy              =     -85.88893789 Ry
     estimated scf accuracy    <       0.00002615 Ry

     iteration #  5     ecut=    40.00 Ry     beta= 0.70
     Davidson diagonalization with overlap
     ethr =  2.61E-07,  avg # of iterations =  1.0

     total cpu time spent up to now is        7.2 secs

     total energy              =     -85.88894090 Ry
     estimated scf accuracy    <       0.00000104 Ry

     iteration #  6     ecut=    40.00 Ry     beta= 0.70
     Davidson diagonalization with overlap
     ethr =  1.04E-08,  avg # of iterations =  1.5

     total cpu time spent up to now is        8.3 secs

     total energy              =     -85.88894084 Ry
     estimated scf accuracy    <       0.00000029 Ry

     iteration #  7     ecut=    40.00 Ry     beta= 0.70
     Davidson diagonalization with overlap
     ethr =  2.93E-09,  avg # of iterations =  1.2

     total cpu time spent up to now is        9.1 secs

     End of self-consistent calculation

          k = 0.0000 0.0000 0.0000 (   331 PWs)   bands (ev):

     5.1929  12.1303  12.1303  12.1303  13.2380  13.2380  37.8998  41.8312
    41.8312

          k =-0.1250 0.1250-0.1250 (   319 PWs)   bands (ev):

     5.7975  11.9797  12.2507  12.2507  13.1961  13.1961  35.1014  38.9255
    40.9262

          k =-0.2500 0.2500-0.2500 (   311 PWs)   bands (ev):

     7.4422  11.7681  12.3372  12.3372  13.3283  13.3283  28.6985  37.9999
    39.8270

          k =-0.3750 0.3750-0.3750 (   320 PWs)   bands (ev):

     9.1573  12.1851  12.1851  12.4470  13.7442  13.7442  23.0441  36.8654
    39.1772

          k = 0.5000-0.5000 0.5000 (   332 PWs)   bands (ev):

     9.5887  12.0958  12.0958  13.9395  13.9574  13.9574  20.0069  36.3765
    38.9646

          k = 0.0000 0.2500 0.0000 (   315 PWs)   bands (ev):

     5.9962  11.8443  12.3574  12.3574  12.9827  13.3403  36.7301  38.0443
    38.0443

          k =-0.1250 0.3750-0.1250 (   314 PWs)   bands (ev):

     7.2962  11.5586  12.4048  12.5485  13.0503  13.4907  31.2021  36.1565
    36.6702

          k =-0.2500 0.5000-0.2500 (   317 PWs)   bands (ev):

     9.1075  11.5739  12.0970  12.4785  13.8249  13.9400  25.1425  35.2890
    35.3860

          k = 0.6250-0.3750 0.6250 (   316 PWs)   bands (ev):

     9.8958  11.8090  12.3373  12.4550  13.9720  15.6093  20.6066  33.6275
    35.9268

          k = 0.5000-0.2500 0.5000 (   314 PWs)   bands (ev):

     9.7978  11.9069  12.2633  12.3374  13.6829  15.1608  21.8287  32.5804
    37.9148

          k = 0.3750-0.1250 0.3750 (   313 PWs)   bands (ev):

     8.5506  11.5892  12.1835  12.5030  13.1343  14.0424  27.0805  32.5562
    39.5076

          k = 0.2500 0.0000 0.2500 (   317 PWs)   bands (ev):

     6.7582  11.7429  12.3525  12.4529  12.9580  13.4468  33.0660  33.8476
    41.4401

          k = 0.0000 0.5000 0.0000 (   311 PWs)   bands (ev):

     8.1052  11.1839  12.5990  12.9811  12.9811  13.5910  33.5495  33.5495
    34.3785

          k =-0.1250 0.6250-0.1250 (   318 PWs)   bands (ev):

     9.4233  10.9348  12.3472  13.1130  13.8639  14.0933  28.1050  31.4226
    32.2326

          k = 0.7500-0.2500 0.7500 (   315 PWs)   bands (ev):

    10.3339  11.0086  12.1173  12.9678  14.0093  16.6167  22.7381  28.8249
    32.4474

          k = 0.6250-0.1250 0.6250 (   313 PWs)   bands (ev):

    10.6421  11.2347  11.8867  12.8440  13.7042  17.8490  21.2930  27.1923
    34.2338

          k = 0.5000 0.0000 0.5000 (   315 PWs)   bands (ev):

    10.0951  11.4483  11.7191  12.7925  13.1949  15.4262  25.8240  27.1357
    37.3095

          k = 0.0000 0.7500 0.0000 (   322 PWs)   bands (ev):

     9.6603  10.5623  13.7505  13.7505  13.8473  14.0604  27.6734  30.2917
    30.2917

          k = 0.8750-0.1250 0.8750 (   318 PWs)   bands (ev):

     9.9664  10.5049  13.2320  13.6772  14.0586  16.8289  24.9768  26.3147
    29.9787

          k = 0.7500 0.0000 0.7500 (   308 PWs)   bands (ev):

    10.4671  10.7614  12.4032  13.3947  13.8725  20.0360  21.5741  24.1826
    31.4105

          k = 0.0000-1.0000 0.0000 (   302 PWs)   bands (ev):

     9.7473  10.3151  13.9552  14.1308  14.1308  16.6855  23.4846  29.0600
    29.0600

          k =-0.2500 0.5000 0.0000 (   315 PWs)   bands (ev):

     8.7272  11.2831  12.1163  12.9940  13.0610  14.0778  29.5792  30.2427
    35.7135

          k = 0.6250-0.3750 0.8750 (   317 PWs)   bands (ev):

    10.1540  11.3301  11.7634  12.8450  13.6421  15.5462  24.0983  29.6857
    32.8076

          k = 0.5000-0.2500 0.7500 (   314 PWs)   bands (ev):

    10.4916  11.3197  11.9834  12.7164  13.8781  17.6958  20.3982  30.2632
    31.1141

          k = 0.7500-0.2500 1.0000 (   321 PWs)   bands (ev):

    10.1300  10.7915  12.2909  13.5688  13.7465  15.8766  27.0224  27.6345
    28.5495

          k = 0.6250-0.1250 0.8750 (   315 PWs)   bands (ev):

    10.6104  10.9504  11.9545  13.2466  13.9752  19.0934  22.3337  25.9821
    28.2445

          k = 0.5000 0.0000 0.7500 (   315 PWs)   bands (ev):

    10.9083  11.1817  11.4680  13.1000  13.7533  18.2378  23.1166  25.3533
    30.0529

          k =-0.2500-1.0000 0.0000 (   316 PWs)   bands (ev):

    10.1394  10.5906  12.8567  13.6213  14.1314  18.6343  23.6976  26.0171
    27.0516

          k =-0.5000-1.0000 0.0000 (   308 PWs)   bands (ev):

    10.6531  11.4390  11.4390  13.1606  14.1319  22.0363  22.0363  24.2511
    25.2831

     the Fermi energy is    13.9940 ev

!    total energy              =     -85.88894089 Ry
     estimated scf accuracy    <          2.3E-09 Ry
     smearing contrib. (-TS)   =      -0.00076318 Ry
     internal energy E=F+TS    =     -85.88817771 Ry

     The total energy is F=E-TS. E is the sum of the following terms:
     one-electron contribution =      -2.23040456 Ry
     hartree contribution      =      15.30596071 Ry
     xc contribution           =     -30.11162282 Ry
     ewald contribution        =     -68.85211104 Ry

     convergence has been achieved in   7 iterations

     Writing all to output data dir ./out/ni_bulk.save/ :
     XML data file, charge density, pseudopotentials, collected wavefunctions

     init_run     :      1.92s CPU      1.00s WALL (       1 calls)
     electrons    :     70.31s CPU      8.06s WALL (       1 calls)

     Called by init_run:
     wfcinit      :      1.25s CPU      0.40s WALL (       1 calls)
     potinit      :      0.23s CPU      0.22s WALL (       1 calls)
     hinit0       :      0.42s CPU      0.36s WALL (       1 calls)

     Called by electrons:
     c_bands      :     65.66s CPU      7.19s WALL (       7 calls)
     sum_band     :      2.81s CPU      0.66s WALL (       7 calls)
     v_of_rho     :      0.56s CPU      0.07s WALL (       8 calls)
     newd         :      0.93s CPU      0.12s WALL (       8 calls)
     mix_rho      :      0.27s CPU      0.04s WALL (       7 calls)

     Called by c_bands:
     init_us_2    :      0.10s CPU      0.03s WALL (     435 calls)
     cegterg      :     58.46s CPU      6.48s WALL (     203 calls)

     Called by *egterg:
     cdiaghg      :      0.36s CPU      0.06s WALL (     717 calls)
     h_psi        :     55.84s CPU      6.45s WALL (     746 calls)
     s_psi        :      1.81s CPU      0.18s WALL (     746 calls)
     g_psi        :      0.05s CPU      0.01s WALL (     514 calls)

     Called by h_psi:
     h_psi:calbec :      0.41s CPU      0.04s WALL (     746 calls)
     vloc_psi     :     54.45s CPU      6.30s WALL (     746 calls)
                                        0.00s GPU  (     746 calls)
     add_vuspsi   :      0.10s CPU      0.01s WALL (     746 calls)

     General routines
     calbec       :      0.37s CPU      0.04s WALL (     949 calls)
     fft          :      0.97s CPU      0.28s WALL (     102 calls)
     ffts         :      0.22s CPU      0.20s WALL (      15 calls)
     fftw         :     53.40s CPU      6.43s WALL (   11791 calls)
     interpolate  :      0.25s CPU      0.21s WALL (       8 calls)

     Parallel routines

     PWSCF        :   1m13.09s CPU      9.22s WALL


   This run was terminated on:  22:52:29  12Jun2026            

=------------------------------------------------------------------------------=
   JOB DONE.
=------------------------------------------------------------------------------=
