
     Program PWSCF v.7.5 starts on 14Jun2026 at  1:52:43 

     This program is part of the open-source Quantum ESPRESSO suite
     for quantum simulation of materials; please cite
         "P. Giannozzi et al., J. Phys.:Condens. Matter 21 395502 (2009);
         "P. Giannozzi et al., J. Phys.:Condens. Matter 29 465901 (2017);
         "P. Giannozzi et al., J. Chem. Phys. 152 154105 (2020);
          URL http://www.quantum-espresso.org", 
     in publications or presentations arising from this work. More details at
     http://www.quantum-espresso.org/quote

     Parallel version (MPI & OpenMP), running on      12 processor cores
     Number of MPI processes:                 1
     Threads/MPI process:                    12

     MPI processes distributed on     1 nodes
     2563 MiB available memory on the printing compute node when the environment starts

     Reading input from ni3ti_eta_v3.scf.in

     Current dimensions of program PWSCF are:
     Max number of different atomic species (ntypx) = 10
     Max number of k-points (npk) =  40000
     Max angular momentum in pseudopotentials (lmaxx) =  4
     file Ni.pbe-spn-rrkjus_psl.1.0.0.UPF: wavefunction(s)  3P 3D renormalized
     file Ti.pbe-spn-rrkjus_psl.1.0.0.UPF: wavefunction(s)  3S 3D renormalized

     Subspace diagonalization in iterative solution of the eigenvalue problem:
     a serial algorithm will be used


     G-vector sticks info
     --------------------
     sticks:   dense  smooth     PW     G-vecs:    dense   smooth      PW
     Sum        2245    1135    313               141285    50113    7631

     Using Slab Decomposition



     bravais-lattice index     =            4
     lattice parameter (alat)  =       9.5430  a.u.
     unit-cell volume          =    1226.0452 (a.u.)^3
     number of atoms/cell      =           16
     number of atomic types    =            2
     number of electrons       =       264.00
     number of Kohn-Sham states=          158
     kinetic-energy cutoff     =      45.0000  Ry
     charge density cutoff     =     360.0000  Ry
     scf convergence threshold =      1.0E-08
     mixing beta               =       0.1000
     number of iterations used =            8  local-TF  mixing
     Exchange-correlation= PBE
                           (   1   4   3   4   0   0   0)

     celldm(1)=   9.543000  celldm(2)=   0.000000  celldm(3)=   1.629000
     celldm(4)=   0.000000  celldm(5)=   0.000000  celldm(6)=   0.000000

     crystal axes: (cart. coord. in units of alat)
               a(1) = (   1.000000   0.000000   0.000000 )  
               a(2) = (  -0.500000   0.866025   0.000000 )  
               a(3) = (   0.000000   0.000000   1.629000 )  

     reciprocal axes: (cart. coord. in units 2 pi/alat)
               b(1) = (  1.000000  0.577350 -0.000000 )  
               b(2) = (  0.000000  1.154701  0.000000 )  
               b(3) = (  0.000000 -0.000000  0.613874 )  


     PseudoPot. # 1 for Ni read from file:
     ./pseudo/Ni.pbe-spn-rrkjus_psl.1.0.0.UPF
     MD5 check sum: 8b3fc9aac6dafe35f580d41bb18c3945
     Pseudo is Ultrasoft + core correction, Zval = 18.0
     Generated using &quot;atomic&quot; code by A. Dal Corso  v.6.3
     Using radial grid of 1195 points,  6 beta functions with: 
                l(1) =   0
                l(2) =   0
                l(3) =   1
                l(4) =   1
                l(5) =   2
                l(6) =   2
     Q(r) pseudized with 0 coefficients 


     PseudoPot. # 2 for Ti read from file:
     ./pseudo/Ti.pbe-spn-rrkjus_psl.1.0.0.UPF
     MD5 check sum: e281089c08e14b8efcf92e44a67ada65
     Pseudo is Ultrasoft + core correction, Zval = 12.0
     Generated using &quot;atomic&quot; code by A. Dal Corso  v.6.2.2
     Using radial grid of 1177 points,  6 beta functions with: 
                l(1) =   0
                l(2) =   0
                l(3) =   1
                l(4) =   1
                l(5) =   2
                l(6) =   2
     Q(r) pseudized with 0 coefficients 


     atomic species   valence    mass     pseudopotential
     Ni               18.00    58.69300     Ni( 1.00)
     Ti               12.00    47.86700     Ti( 1.00)

     24 Sym. Ops., with inversion, found (12 have fractional translation)



   Cartesian axes

     site n.     atom                  positions (alat units)
         1        Ti     tau(   1) = (   0.0000000   0.0000000   0.0000000  )
         2        Ti     tau(   2) = (   0.0000000   0.0000000   0.8145000  )
         3        Ti     tau(   3) = (  -0.0000005   0.5773506   0.4072500  )
         4        Ti     tau(   4) = (   0.5000005   0.2886748   1.2217500  )
         5        Ni     tau(   5) = (   0.5000000   0.0000000   0.0000000  )
         6        Ni     tau(   6) = (  -0.2500000   0.4330127   0.0000000  )
         7        Ni     tau(   7) = (   0.2500000   0.4330127   0.0000000  )
         8        Ni     tau(   8) = (   0.5000000   0.0000000   0.8145000  )
         9        Ni     tau(   9) = (  -0.2500000   0.4330127   0.8145000  )
        10        Ni     tau(  10) = (   0.2500000   0.4330127   0.8145000  )
        11        Ni     tau(  11) = (   0.5000000   0.5678511   0.4072500  )
        12        Ni     tau(  12) = (   0.2582265   0.1490871   0.4072500  )
        13        Ni     tau(  13) = (   0.7417735   0.1490871   0.4072500  )
        14        Ni     tau(  14) = (   0.0000000   0.2981743   1.2217500  )
        15        Ni     tau(  15) = (   0.2417735   0.7169383   1.2217500  )
        16        Ni     tau(  16) = (  -0.2417735   0.7169383   1.2217500  )

     number of k points=    21  Marzari-Vanderbilt smearing, width (Ry)=  0.0200
                       cart. coord. in units 2pi/alat
        k(    1) = (   0.0000000   0.0000000   0.0000000), wk =   0.0138889
        k(    2) = (   0.0000000   0.0000000   0.1534684), wk =   0.0277778
        k(    3) = (   0.0000000   0.0000000  -0.3069368), wk =   0.0138889
        k(    4) = (   0.0000000   0.1924501   0.0000000), wk =   0.0833333
        k(    5) = (   0.0000000   0.1924501   0.1534684), wk =   0.1666667
        k(    6) = (   0.0000000   0.1924501  -0.3069368), wk =   0.0833333
        k(    7) = (   0.0000000   0.3849002   0.0000000), wk =   0.0833333
        k(    8) = (   0.0000000   0.3849002   0.1534684), wk =   0.1666667
        k(    9) = (   0.0000000   0.3849002  -0.3069368), wk =   0.0833333
        k(   10) = (   0.0000000  -0.5773503   0.0000000), wk =   0.0416667
        k(   11) = (   0.0000000  -0.5773503   0.1534684), wk =   0.0833333
        k(   12) = (   0.0000000  -0.5773503  -0.3069368), wk =   0.0416667
        k(   13) = (   0.1666667   0.2886751   0.0000000), wk =   0.0833333
        k(   14) = (   0.1666667   0.2886751   0.1534684), wk =   0.1666667
        k(   15) = (   0.1666667   0.2886751  -0.3069368), wk =   0.0833333
        k(   16) = (   0.1666667   0.4811252   0.0000000), wk =   0.1666667
        k(   17) = (   0.1666667   0.4811252   0.1534684), wk =   0.3333333
        k(   18) = (   0.1666667   0.4811252  -0.3069368), wk =   0.1666667
        k(   19) = (   0.3333333   0.5773503   0.0000000), wk =   0.0277778
        k(   20) = (   0.3333333   0.5773503   0.1534684), wk =   0.0555556
        k(   21) = (   0.3333333   0.5773503  -0.3069368), wk =   0.0277778

     Dense  grid:   141285 G-vectors     FFT dimensions: (  60,  60,  96)

     Smooth grid:    50113 G-vectors     FFT dimensions: (  45,  45,  72)

     Estimated max dynamical RAM per process >     874.96 MB

     Check: negative core charge=   -0.000005

     Initial potential from superposition of free atoms

     starting charge     263.9911, renormalised to     264.0000
     Starting wfcs are  160 randomized atomic wfcs

     total cpu time spent up to now is       41.4 secs

     per-process dynamical memory:   464.8 Mb

     Self-consistent Calculation

     iteration #  1     ecut=    45.00 Ry     beta= 0.10
     Davidson diagonalization with overlap
     ethr =  1.00E-02,  avg # of iterations =  4.5

     total cpu time spent up to now is      191.4 secs

     total energy              =   -4553.00637613 Ry
     estimated scf accuracy    <       2.81639655 Ry

     iteration #  2     ecut=    45.00 Ry     beta= 0.10
     Davidson diagonalization with overlap
     ethr =  1.07E-03,  avg # of iterations =  1.2

     total cpu time spent up to now is      308.1 secs

     total energy              =   -4552.79967194 Ry
     estimated scf accuracy    <       1.75026589 Ry

     iteration #  3     ecut=    45.00 Ry     beta= 0.10
     Davidson diagonalization with overlap
     ethr =  6.63E-04,  avg # of iterations =  2.2
     Minimization algorithm failed to find Fermi energy: reverting to bisection
     Possible cause: smearing is larger than the electronic band-gap.

     total cpu time spent up to now is      430.0 secs

     total energy              =   -4552.80481547 Ry
     estimated scf accuracy    <       0.40564274 Ry

     iteration #  4     ecut=    45.00 Ry     beta= 0.10
     Davidson diagonalization with overlap
     ethr =  1.54E-04,  avg # of iterations =  2.9

     total cpu time spent up to now is      547.3 secs

     total energy              =   -4552.78507461 Ry
     estimated scf accuracy    <       0.16632237 Ry

     iteration #  5     ecut=    45.00 Ry     beta= 0.10
     Davidson diagonalization with overlap
     ethr =  6.30E-05,  avg # of iterations =  2.1

     total cpu time spent up to now is      676.3 secs

     total energy              =   -4552.76237766 Ry
     estimated scf accuracy    <       0.15003130 Ry

     iteration #  6     ecut=    45.00 Ry     beta= 0.10
     Davidson diagonalization with overlap
     ethr =  5.68E-05,  avg # of iterations =  2.2

     total cpu time spent up to now is      801.9 secs

     total energy              =   -4552.78952617 Ry
     estimated scf accuracy    <       0.02996250 Ry

     iteration #  7     ecut=    45.00 Ry     beta= 0.10
     Davidson diagonalization with overlap
     c_bands:  1 eigenvalues not converged
     ethr =  1.13E-05,  avg # of iterations =  3.1

     total cpu time spent up to now is      920.6 secs

     total energy              =   -4552.79118865 Ry
     estimated scf accuracy    <       0.01846178 Ry

     iteration #  8     ecut=    45.00 Ry     beta= 0.10
     Davidson diagonalization with overlap
     ethr =  6.99E-06,  avg # of iterations =  4.0

     total cpu time spent up to now is     1039.7 secs

     total energy              =   -4552.78390402 Ry
     estimated scf accuracy    <       0.03870933 Ry

     iteration #  9     ecut=    45.00 Ry     beta= 0.10
     Davidson diagonalization with overlap
     ethr =  6.99E-06,  avg # of iterations =  2.1

     total cpu time spent up to now is     1153.4 secs

     total energy              =   -4552.78754159 Ry
     estimated scf accuracy    <       0.00494312 Ry

     iteration # 10     ecut=    45.00 Ry     beta= 0.10
     Davidson diagonalization with overlap
     ethr =  1.87E-06,  avg # of iterations =  1.8

     total cpu time spent up to now is     1262.2 secs

     total energy              =   -4552.78785107 Ry
     estimated scf accuracy    <       0.00020290 Ry

     iteration # 11     ecut=    45.00 Ry     beta= 0.10
     Davidson diagonalization with overlap
     ethr =  7.69E-08,  avg # of iterations =  2.5

     total cpu time spent up to now is     1393.7 secs

     total energy              =   -4552.78789307 Ry
     estimated scf accuracy    <       0.00006133 Ry

     iteration # 12     ecut=    45.00 Ry     beta= 0.10
     Davidson diagonalization with overlap
     ethr =  2.32E-08,  avg # of iterations =  2.0

     total cpu time spent up to now is     1523.3 secs

     total energy              =   -4552.78790359 Ry
     estimated scf accuracy    <       0.00004858 Ry

     iteration # 13     ecut=    45.00 Ry     beta= 0.10
     Davidson diagonalization with overlap
     ethr =  1.84E-08,  avg # of iterations =  1.2

     total cpu time spent up to now is     1634.2 secs

     total energy              =   -4552.78790775 Ry
     estimated scf accuracy    <       0.00003775 Ry

     iteration # 14     ecut=    45.00 Ry     beta= 0.10
     Davidson diagonalization with overlap
     ethr =  1.43E-08,  avg # of iterations =  1.6

     total cpu time spent up to now is     1750.1 secs

     total energy              =   -4552.78791801 Ry
     estimated scf accuracy    <       0.00000052 Ry

     iteration # 15     ecut=    45.00 Ry     beta= 0.10
     Davidson diagonalization with overlap
     ethr =  1.97E-10,  avg # of iterations =  3.2

     total cpu time spent up to now is     1894.6 secs

     total energy              =   -4552.78792393 Ry
     estimated scf accuracy    <       0.00000059 Ry

     iteration # 16     ecut=    45.00 Ry     beta= 0.10
     Davidson diagonalization with overlap
     ethr =  1.97E-10,  avg # of iterations =  1.2

     total cpu time spent up to now is     2006.6 secs

     total energy              =   -4552.78792858 Ry
     estimated scf accuracy    <       0.00000033 Ry

     iteration # 17     ecut=    45.00 Ry     beta= 0.10
     Davidson diagonalization with overlap
     ethr =  1.25E-10,  avg # of iterations =  1.0

     total cpu time spent up to now is     2116.0 secs

     total energy              =   -4552.78793232 Ry
     estimated scf accuracy    <       0.00000020 Ry

     iteration # 18     ecut=    45.00 Ry     beta= 0.10
     Davidson diagonalization with overlap
     ethr =  7.73E-11,  avg # of iterations =  1.0

     total cpu time spent up to now is     2225.0 secs

     total energy              =   -4552.78793537 Ry
     estimated scf accuracy    <       0.00000016 Ry

     iteration # 19     ecut=    45.00 Ry     beta= 0.10
     Davidson diagonalization with overlap
     ethr =  6.08E-11,  avg # of iterations =  1.0

     total cpu time spent up to now is     2333.0 secs

     total energy              =   -4552.78793780 Ry
     estimated scf accuracy    <       0.00000006 Ry

     iteration # 20     ecut=    45.00 Ry     beta= 0.10
     Davidson diagonalization with overlap
     ethr =  2.41E-11,  avg # of iterations =  2.1

     total cpu time spent up to now is     2459.9 secs

     total energy              =   -4552.78793972 Ry
     estimated scf accuracy    <       0.00000001 Ry

     iteration # 21     ecut=    45.00 Ry     beta= 0.10
     Davidson diagonalization with overlap
     ethr =  5.21E-12,  avg # of iterations =  2.0

     total cpu time spent up to now is     2585.2 secs

     End of self-consistent calculation

          k = 0.0000 0.0000 0.0000 (  6315 PWs)   bands (ev):

   -85.0227 -85.0133 -85.0114 -85.0028 -85.0028 -85.0021 -84.9980 -84.9980
   -84.9976 -84.9975 -84.9926 -84.9926 -45.3525 -45.3406 -45.3406 -45.3308
   -45.3142 -45.3142 -45.3067 -45.3067 -45.2826 -45.2825 -45.2774 -45.2747
   -45.2691 -45.2605 -45.2605 -45.2498 -45.2435 -45.2284 -45.2284 -45.1970
   -45.1965 -45.1940 -45.1790 -45.1790 -45.1474 -45.1406 -45.1406 -45.1147
   -45.1147 -45.1075 -45.1075 -45.0730 -45.0553 -45.0552 -45.0434 -45.0434
   -38.7475 -38.7443 -38.6333 -38.6325 -15.0402 -15.0402 -15.0399 -15.0399
   -15.0388 -15.0290 -14.9334 -14.9334 -14.9312 -14.9312 -14.8929 -14.8796
     9.7701  11.9737  11.9827  13.6209  13.6209  13.6608  13.6705  13.6705
    14.2162  14.2162  14.2482  14.2597  14.4536  14.4624  14.4624  14.7636
    14.9764  14.9764  15.0288  15.0814  15.0814  15.1942  15.2570  15.2570
    15.2927  15.8432  15.8432  15.9044  15.9967  16.1129  16.2092  16.2092
    16.3355  16.3355  16.4679  16.4680  16.4701  16.4767  16.6171  16.6171
    16.6645  16.6645  16.7012  16.7012  16.7303  16.7303  16.9526  16.9576
    17.0455  17.2677  17.2677  17.3214  17.3214  17.3899  17.3899  17.5609
    17.8924  17.9516  18.0055  18.0055  18.0128  18.0856  18.0917  18.0917
    18.1187  18.3553  18.9042  18.9042  19.0319  19.0320  19.2181  19.3574
    19.3575  19.5588  19.5588  19.7234  19.7234  19.7519  19.7626  19.7626
    20.2246  20.2246  20.4472  20.5411  20.5412  20.5457  20.8618  20.8618
    20.8950  20.8950  22.3899  22.3899  22.5029  22.5726

          k = 0.0000 0.0000 0.1535 (  6219 PWs)   bands (ev):

   -85.0217 -85.0163 -85.0083 -85.0028 -85.0023 -85.0023 -84.9997 -84.9996
   -84.9956 -84.9956 -84.9928 -84.9928 -45.3236 -45.3236 -45.3198 -45.3166
   -45.3045 -45.3045 -45.2799 -45.2799 -45.2691 -45.2585 -45.2584 -45.2550
   -45.2246 -45.2244 -45.2244 -45.2244 -45.2144 -45.2144 -45.2043 -45.1864
   -45.1725 -45.1701 -45.1523 -45.1523 -45.1198 -45.1158 -45.1158 -45.0904
   -45.0904 -45.0901 -45.0901 -45.0458 -45.0324 -45.0323 -45.0247 -45.0247
   -38.7470 -38.7448 -38.6332 -38.6327 -15.0400 -15.0400 -15.0396 -15.0396
   -15.0372 -15.0302 -14.9329 -14.9329 -14.9312 -14.9312 -14.8909 -14.8812
     9.9328  11.1005  12.8388  13.6306  13.7163  13.7163  13.7558  13.7558
    14.1765  14.1765  14.3026  14.3026  14.3127  14.3129  14.4944  14.6848
    14.7843  14.7843  14.8900  14.8900  14.8967  14.9448  15.6762  15.6836
    15.6836  15.8851  15.8851  15.9576  16.1146  16.1916  16.3848  16.3848
    16.4352  16.5033  16.5033  16.5069  16.5069  16.5175  16.5934  16.5934
    16.6270  16.6718  16.6719  16.7549  16.7549  16.7786  16.7786  17.0971
    17.0971  17.3285  17.3438  17.4192  17.4192  17.4319  17.4319  17.5012
    17.6667  17.6667  17.8509  17.8509  17.8598  17.9540  17.9742  18.0237
    18.0917  18.1055  18.7898  19.0245  19.0245  19.1191  19.1191  19.1528
    19.4673  19.4673  19.5902  19.5902  19.6563  19.6563  19.8272  19.8273
    20.1423  20.1424  20.1846  20.1846  20.9808  21.0940  21.0940  21.2425
    21.2948  21.2948  22.2932  22.2933  22.4136  22.4826

          k = 0.0000 0.0000-0.3069 (  6238 PWs)   bands (ev):

   -85.0196 -85.0196 -85.0050 -85.0050 -85.0013 -85.0013 -85.0013 -85.0013
   -84.9940 -84.9940 -84.9940 -84.9940 -45.3212 -45.3212 -45.3212 -45.3212
   -45.3120 -45.3120 -45.2867 -45.2867 -45.2866 -45.2866 -45.2660 -45.2660
   -45.2224 -45.2224 -45.2224 -45.2224 -45.2218 -45.2218 -45.2131 -45.2131
   -45.1796 -45.1796 -45.1309 -45.1309 -45.1309 -45.1309 -45.1031 -45.1031
   -45.1030 -45.1030 -45.0716 -45.0716 -45.0342 -45.0342 -45.0342 -45.0342
   -38.7459 -38.7459 -38.6329 -38.6329 -15.0399 -15.0399 -15.0399 -15.0399
   -15.0336 -15.0336 -14.9322 -14.9322 -14.9322 -14.9322 -14.8861 -14.8861
    10.3833  10.3833  13.4080  13.4080  13.9211  13.9211  13.9211  13.9211
    14.0094  14.0094  14.0094  14.0094  14.3949  14.3949  14.5182  14.5182
    14.7397  14.7397  14.7397  14.7397  14.7917  14.7917  15.9185  15.9185
    15.9185  15.9185  15.9662  15.9662  16.3044  16.3044  16.3628  16.3628
    16.5110  16.5110  16.5110  16.5110  16.5808  16.5808  16.5808  16.5808
    16.8195  16.8195  16.8195  16.8195  16.9023  16.9023  17.0461  17.0461
    17.0461  17.0461  17.3208  17.3208  17.3208  17.3208  17.4395  17.4395
    17.4395  17.4395  17.6562  17.6562  17.7441  17.7441  17.9850  17.9850
    18.0836  18.0836  18.5432  18.5432  19.1272  19.1272  19.1272  19.1272
    19.5926  19.5926  19.5926  19.5926  19.8124  19.8124  19.8125  19.8125
    19.9435  19.9435  19.9435  19.9435  21.4555  21.4555  21.4555  21.4555
    21.6319  21.6319  22.2596  22.2596  22.2596  22.4508

          k = 0.0000 0.1925 0.0000 (  6253 PWs)   bands (ev):

   -85.0215 -85.0127 -85.0106 -85.0035 -85.0027 -85.0013 -84.9987 -84.9983
   -84.9979 -84.9976 -84.9931 -84.9925 -45.3298 -45.3295 -45.3277 -45.3159
   -45.2988 -45.2923 -45.2919 -45.2856 -45.2642 -45.2627 -45.2613 -45.2594
   -45.2555 -45.2548 -45.2403 -45.2349 -45.2283 -45.2223 -45.2096 -45.2042
   -45.1915 -45.1788 -45.1626 -45.1583 -45.1329 -45.1296 -45.1272 -45.1034
   -45.1018 -45.0923 -45.0920 -45.0595 -45.0440 -45.0428 -45.0288 -45.0245
   -38.7468 -38.7440 -38.6329 -38.6321 -15.0443 -15.0433 -15.0405 -15.0396
   -15.0386 -15.0291 -14.9342 -14.9340 -14.9340 -14.9312 -14.8917 -14.8801
    10.0209  12.1819  12.1887  13.5970  13.7378  13.7508  13.7977  13.8174
    14.1252  14.3061  14.3259  14.3359  14.4077  14.5960  14.6041  14.8189
    15.0434  15.0910  15.1154  15.1190  15.1287  15.2190  15.2701  15.2746
    15.2889  15.8022  15.8215  15.8744  15.9945  16.0691  16.1121  16.1273
    16.2374  16.3803  16.4162  16.4321  16.4536  16.4892  16.5304  16.5642
    16.6139  16.6525  16.7120  16.7163  16.7872  16.8102  16.8748  16.8895
    17.0112  17.1809  17.1878  17.2545  17.2969  17.3092  17.4142  17.4317
    17.4963  17.5809  17.6689  17.7826  17.8677  17.8819  17.9467  18.0094
    18.0128  18.0989  18.4146  18.8247  18.8392  19.0941  19.1753  19.3095
    19.3443  19.3551  19.5067  19.5573  19.6728  19.7278  19.7571  19.9454
    20.2449  20.3494  20.3498  20.4528  20.5854  20.6851  20.8129  20.9872
    21.4209  21.4888  21.6201  21.8398  22.3506  23.6866

          k = 0.0000 0.1925 0.1535 (  6246 PWs)   bands (ev):

   -85.0208 -85.0155 -85.0077 -85.0032 -85.0023 -85.0021 -85.0004 -84.9996
   -84.9965 -84.9958 -84.9935 -84.9929 -45.3303 -45.3209 -45.3196 -45.3117
   -45.2998 -45.2978 -45.2895 -45.2831 -45.2745 -45.2740 -45.2569 -45.2565
   -45.2543 -45.2490 -45.2473 -45.2364 -45.2255 -45.2234 -45.2167 -45.1882
   -45.1873 -45.1812 -45.1621 -45.1561 -45.1306 -45.1193 -45.1079 -45.1039
   -45.0988 -45.0904 -45.0896 -45.0575 -45.0379 -45.0357 -45.0317 -45.0305
   -38.7464 -38.7444 -38.6328 -38.6322 -15.0438 -15.0426 -15.0412 -15.0393
   -15.0379 -15.0305 -14.9341 -14.9339 -14.9337 -14.9317 -14.8899 -14.8818
    10.1744  11.3236  13.0253  13.6414  13.7758  13.8184  13.8222  13.8924
    14.0692  14.2375  14.3179  14.3763  14.3878  14.4536  14.5962  14.7505
    14.8205  14.8421  14.9127  14.9666  14.9749  15.0121  15.6318  15.6459
    15.6853  15.8756  15.9034  15.9123  16.1068  16.1329  16.2047  16.3351
    16.3402  16.3980  16.4660  16.4669  16.4741  16.5160  16.5324  16.5835
    16.6087  16.6527  16.7007  16.7478  16.7533  16.7953  16.8046  16.9430
    16.9914  17.0385  17.1180  17.2543  17.3354  17.3484  17.4317  17.4572
    17.4759  17.5083  17.5414  17.6870  17.7354  17.7663  17.8803  17.9470
    17.9634  18.1040  18.1128  18.2857  19.1217  19.1687  19.2175  19.3684
    19.3926  19.4217  19.5130  19.6212  19.6649  19.7064  19.7434  19.9232
    20.0237  20.0787  20.3766  20.3818  20.6501  20.8475  20.9785  21.2835
    21.3152  21.6204  21.8627  22.2991  22.4083  23.4690

          k = 0.0000 0.1925-0.3069 (  6226 PWs)   bands (ev):

   -85.0186 -85.0186 -85.0046 -85.0046 -85.0019 -85.0019 -85.0013 -85.0013
   -84.9946 -84.9946 -84.9941 -84.9941 -45.3219 -45.3219 -45.3123 -45.3123
   -45.3047 -45.3047 -45.2781 -45.2781 -45.2771 -45.2771 -45.2550 -45.2550
   -45.2403 -45.2403 -45.2312 -45.2312 -45.2229 -45.2229 -45.2070 -45.2070
   -45.1871 -45.1871 -45.1364 -45.1364 -45.1326 -45.1326 -45.0957 -45.0957
   -45.0900 -45.0900 -45.0591 -45.0591 -45.0300 -45.0300 -45.0273 -45.0273
   -38.7454 -38.7454 -38.6325 -38.6325 -15.0425 -15.0425 -15.0410 -15.0410
   -15.0341 -15.0341 -14.9340 -14.9340 -14.9327 -14.9327 -14.8858 -14.8858
    10.6250  10.6250  13.5714  13.5714  13.8068  13.8068  13.9964  13.9964
    14.1031  14.1031  14.1631  14.1631  14.4859  14.4859  14.5844  14.5844
    14.8109  14.8109  14.8190  14.8190  14.8620  14.8620  15.8913  15.8913
    15.9421  15.9421  15.9605  15.9605  16.2514  16.2514  16.2764  16.2764
    16.3267  16.3267  16.5552  16.5552  16.5670  16.5670  16.6473  16.6473
    16.6561  16.6561  16.7407  16.7407  16.7619  16.7619  16.9459  16.9459
    16.9731  16.9731  17.1389  17.1389  17.2207  17.2207  17.3843  17.3843
    17.4393  17.4393  17.5153  17.5153  17.6399  17.6399  17.8958  17.8958
    17.8978  17.8978  18.0163  18.0163  19.1847  19.1847  19.3881  19.3881
    19.5120  19.5120  19.5158  19.5158  19.6349  19.6349  19.8465  19.8465
    20.0992  20.0992  20.1343  20.1343  20.9140  20.9140  20.9706  20.9706
    21.7358  21.7358  22.8065  22.8065  22.8955  22.8955

          k = 0.0000 0.3849 0.0000 (  6250 PWs)   bands (ev):

   -85.0188 -85.0124 -85.0084 -85.0047 -85.0027 -85.0009 -85.0004 -84.9994
   -84.9979 -84.9975 -84.9948 -84.9926 -45.3294 -45.3235 -45.3230 -45.3147
   -45.3018 -45.2856 -45.2841 -45.2763 -45.2748 -45.2716 -45.2676 -45.2557
   -45.2501 -45.2406 -45.2357 -45.2338 -45.2300 -45.2277 -45.2244 -45.2053
   -45.1937 -45.1851 -45.1686 -45.1464 -45.1360 -45.1286 -45.1236 -45.1182
   -45.1079 -45.1013 -45.0897 -45.0553 -45.0498 -45.0388 -45.0289 -45.0277
   -38.7453 -38.7435 -38.6320 -38.6311 -15.0501 -15.0469 -15.0448 -15.0412
   -15.0391 -15.0298 -14.9402 -14.9358 -14.9351 -14.9319 -14.8895 -14.8816
    10.7269  12.6677  12.7393  13.0576  13.7858  13.8506  14.0889  14.1355
    14.1992  14.5296  14.5616  14.5714  14.5726  14.8073  14.8411  14.9457
    15.1028  15.1102  15.2062  15.2117  15.2488  15.3174  15.3701  15.4177
    15.4413  15.6445  15.7392  15.7955  15.8056  15.8866  15.9407  15.9542
    16.0967  16.1085  16.1876  16.3071  16.3302  16.3306  16.4527  16.5125
    16.5665  16.6155  16.6507  16.6613  16.7192  16.7413  16.8247  16.8628
    16.9230  16.9418  16.9623  16.9965  17.0341  17.0493  17.1219  17.1339
    17.1587  17.2845  17.3187  17.5354  17.5468  17.6175  17.6625  17.7359
    17.7954  18.0220  18.0419  18.0536  18.6756  19.1201  19.2306  19.3053
    19.3150  19.3310  19.3682  19.4793  19.5117  19.5590  19.5912  19.6168
    19.9871  20.0282  20.2466  20.2873  20.5555  20.6717  20.8402  21.9189
    22.0427  22.1186  22.1256  22.4144  22.4576  25.0873

          k = 0.0000 0.3849 0.1535 (  6249 PWs)   bands (ev):

   -85.0182 -85.0140 -85.0073 -85.0043 -85.0025 -85.0024 -85.0000 -84.9997
   -84.9983 -84.9958 -84.9952 -84.9930 -45.3319 -45.3272 -45.3142 -45.3054
   -45.2958 -45.2914 -45.2790 -45.2766 -45.2726 -45.2710 -45.2649 -45.2551
   -45.2537 -45.2425 -45.2338 -45.2252 -45.2249 -45.2190 -45.2147 -45.2090
   -45.1966 -45.1898 -45.1574 -45.1487 -45.1398 -45.1349 -45.1262 -45.1238
   -45.1020 -45.0959 -45.0941 -45.0594 -45.0486 -45.0444 -45.0374 -45.0362
   -38.7450 -38.7438 -38.6319 -38.6313 -15.0496 -15.0462 -15.0459 -15.0403
   -15.0390 -15.0313 -14.9394 -14.9358 -14.9352 -14.9325 -14.8883 -14.8828
    10.8670  11.9329  13.0216  13.4900  13.5890  14.0566  14.1138  14.2187
    14.2402  14.4814  14.5112  14.5752  14.6063  14.7748  14.8161  14.9138
    14.9385  14.9568  15.0418  15.1673  15.2377  15.2478  15.5005  15.5433
    15.5778  15.7201  15.8005  15.8565  15.8592  15.9646  16.0268  16.0398
    16.0627  16.1765  16.2583  16.2815  16.3025  16.3655  16.4205  16.5073
    16.5639  16.5940  16.6282  16.6822  16.7125  16.7233  16.8089  16.8216
    16.8626  16.8855  16.9647  16.9724  17.0212  17.0287  17.0991  17.2235
    17.2575  17.2585  17.3532  17.4710  17.5224  17.5499  17.5981  17.5991
    17.6814  17.8519  17.9748  18.1123  18.8256  19.1475  19.1710  19.2064
    19.3343  19.3569  19.3884  19.4595  19.5042  19.5789  19.6593  19.7135
    19.8501  19.9874  20.3855  20.3992  20.5520  20.7576  21.0873  21.3516
    21.8796  21.9958  22.2545  22.8692  22.9873  24.0053

          k = 0.0000 0.3849-0.3069 (  6240 PWs)   bands (ev):

   -85.0164 -85.0164 -85.0055 -85.0055 -85.0015 -85.0015 -85.0013 -85.0013
   -84.9964 -84.9964 -84.9940 -84.9940 -45.3333 -45.3333 -45.3063 -45.3063
   -45.2968 -45.2968 -45.2816 -45.2816 -45.2692 -45.2692 -45.2438 -45.2438
   -45.2400 -45.2400 -45.2396 -45.2396 -45.2145 -45.2145 -45.2049 -45.2049
   -45.2039 -45.2039 -45.1416 -45.1416 -45.1355 -45.1355 -45.1207 -45.1207
   -45.0973 -45.0973 -45.0689 -45.0689 -45.0458 -45.0458 -45.0324 -45.0324
   -38.7444 -38.7444 -38.6316 -38.6316 -15.0481 -15.0481 -15.0431 -15.0431
   -15.0349 -15.0349 -14.9375 -14.9375 -14.9338 -14.9338 -14.8854 -14.8854
    11.2855  11.2855  13.2275  13.2275  14.0344  14.0344  14.2349  14.2349
    14.3566  14.3566  14.5016  14.5016  14.6839  14.6839  14.7625  14.7625
    15.0181  15.0181  15.0393  15.0393  15.0754  15.0754  15.6933  15.6933
    15.7412  15.7412  15.8222  15.8222  15.9513  15.9513  16.0646  16.0646
    16.1215  16.1215  16.3133  16.3133  16.4507  16.4507  16.4579  16.4579
    16.5619  16.5619  16.6541  16.6541  16.7177  16.7177  16.8140  16.8140
    16.8741  16.8741  16.8855  16.8855  17.0497  17.0497  17.1039  17.1039
    17.3314  17.3314  17.3653  17.3653  17.4288  17.4288  17.4418  17.4418
    17.7243  17.7243  18.0822  18.0822  19.0032  19.0032  19.1701  19.1701
    19.3872  19.3872  19.4026  19.4026  19.5431  19.5431  19.7478  19.7478
    19.8575  19.8575  20.5593  20.5593  20.7823  20.7823  20.9111  20.9111
    22.0700  22.0700  22.6296  22.6296  23.7710  24.0013

          k = 0.0000-0.5774 0.0000 (  6248 PWs)   bands (ev):

   -85.0163 -85.0135 -85.0068 -85.0040 -85.0028 -85.0027 -85.0022 -84.9978
   -84.9975 -84.9973 -84.9968 -84.9926 -45.3399 -45.3267 -45.3222 -45.3102
   -45.3013 -45.2799 -45.2780 -45.2756 -45.2705 -45.2619 -45.2572 -45.2520
   -45.2513 -45.2474 -45.2426 -45.2344 -45.2332 -45.2114 -45.2010 -45.2007
   -45.1968 -45.1954 -45.1583 -45.1554 -45.1455 -45.1391 -45.1249 -45.1245
   -45.1048 -45.0956 -45.0837 -45.0749 -45.0489 -45.0419 -45.0403 -45.0051
   -38.7444 -38.7434 -38.6316 -38.6307 -15.0524 -15.0486 -15.0477 -15.0420
   -15.0395 -15.0304 -14.9433 -14.9368 -14.9356 -14.9320 -14.8884 -14.8822
    11.6944  11.8744  13.3186  13.3745  13.5329  13.5410  14.4409  14.4687
    14.5164  14.5489  14.5817  14.8025  14.8157  14.8420  14.8925  14.9094
    15.1440  15.1548  15.1715  15.1837  15.4010  15.4465  15.4575  15.5801
    15.6131  15.6406  15.6501  15.7602  15.7744  15.8028  15.8320  15.8831
    15.8885  15.9120  16.0340  16.1366  16.1602  16.1984  16.2022  16.2715
    16.3666  16.3849  16.4345  16.6347  16.6429  16.6714  16.7493  16.8169
    16.8601  16.8784  16.9321  16.9642  16.9693  16.9703  17.0683  17.1189
    17.1717  17.2265  17.2621  17.4585  17.4667  17.5296  17.5790  17.5842
    17.6895  17.7455  18.0151  18.0268  18.6053  19.0301  19.0576  19.2886
    19.2898  19.3091  19.4285  19.4485  19.4543  19.4708  19.5704  19.5858
    19.5925  19.8617  20.2243  20.2391  20.5773  20.6814  20.7957  22.2068
    22.2544  22.3600  22.4798  22.7099  23.5108  24.0598

          k = 0.0000-0.5774 0.1535 (  6254 PWs)   bands (ev):

   -85.0159 -85.0138 -85.0071 -85.0054 -85.0024 -85.0016 -85.0006 -84.9997
   -84.9979 -84.9973 -84.9958 -84.9931 -45.3317 -45.3306 -45.3115 -45.3052
   -45.2871 -45.2819 -45.2805 -45.2754 -45.2717 -45.2715 -45.2611 -45.2586
   -45.2535 -45.2520 -45.2376 -45.2288 -45.2244 -45.2190 -45.2171 -45.2136
   -45.2055 -45.1872 -45.1595 -45.1595 -45.1438 -45.1410 -45.1371 -45.1351
   -45.1008 -45.0903 -45.0836 -45.0830 -45.0473 -45.0471 -45.0323 -45.0280
   -38.7443 -38.7436 -38.6314 -38.6308 -15.0521 -15.0492 -15.0474 -15.0409
   -15.0395 -15.0318 -14.9421 -14.9366 -14.9361 -14.9328 -14.8875 -14.8832
    11.8071  11.9927  12.7063  12.9087  13.9710  14.0980  14.4259  14.4277
    14.5239  14.5908  14.6018  14.7884  14.7940  14.8230  14.8519  14.9241
    15.2033  15.2165  15.2250  15.2367  15.3035  15.3373  15.4010  15.4539
    15.5487  15.5500  15.6100  15.6234  15.7665  15.8197  15.9384  15.9540
    15.9554  15.9717  16.0693  16.1648  16.1844  16.1923  16.1927  16.3357
    16.3452  16.4898  16.6135  16.6472  16.6577  16.6798  16.7448  16.7910
    16.8249  16.8536  16.9008  16.9063  16.9751  17.1184  17.1261  17.1265
    17.1431  17.1593  17.2921  17.2975  17.3233  17.4500  17.4962  17.5383
    17.6046  17.8524  18.0170  18.0688  18.6804  18.9324  19.0677  19.2301
    19.2539  19.3034  19.3225  19.4615  19.5190  19.5359  19.5749  19.6019
    19.6328  19.7485  20.3772  20.4416  20.6716  20.8520  20.9626  21.4646
    22.2139  22.3055  22.8563  23.0811  23.2774  23.2854

          k = 0.0000-0.5774-0.3069 (  6272 PWs)   bands (ev):

   -85.0149 -85.0149 -85.0070 -85.0070 -85.0014 -85.0014 -84.9995 -84.9995
   -84.9987 -84.9987 -84.9941 -84.9941 -45.3368 -45.3368 -45.2993 -45.2993
   -45.2950 -45.2950 -45.2867 -45.2867 -45.2783 -45.2783 -45.2624 -45.2624
   -45.2481 -45.2481 -45.2316 -45.2316 -45.2299 -45.2299 -45.2117 -45.2117
   -45.2037 -45.2037 -45.1600 -45.1600 -45.1542 -45.1542 -45.1398 -45.1398
   -45.0981 -45.0981 -45.0916 -45.0916 -45.0638 -45.0638 -45.0336 -45.0336
   -38.7439 -38.7439 -38.6311 -38.6311 -15.0510 -15.0510 -15.0442 -15.0442
   -15.0354 -15.0354 -14.9393 -14.9393 -14.9344 -14.9344 -14.8854 -14.8854
    12.1191  12.1191  12.3982  12.3982  14.3106  14.3106  14.4082  14.4082
    14.5810  14.5810  14.7026  14.7026  14.8103  14.8103  14.8791  14.8791
    15.2187  15.2187  15.3120  15.3120  15.3576  15.3576  15.3800  15.3800
    15.3980  15.3980  15.4506  15.4506  15.8109  15.8109  15.9489  15.9489
    16.0915  16.0915  16.1564  16.1564  16.1791  16.1791  16.3067  16.3067
    16.4094  16.4094  16.7010  16.7010  16.7027  16.7027  16.7975  16.7975
    16.8238  16.8238  16.9198  16.9198  16.9734  16.9734  17.1113  17.1113
    17.1395  17.1395  17.2022  17.2022  17.3557  17.3557  17.4131  17.4131
    17.6928  17.6928  18.1184  18.1184  18.7711  18.7711  19.0966  19.0966
    19.3323  19.3323  19.3470  19.3470  19.5267  19.5267  19.6164  19.6164
    19.6621  19.6621  20.6590  20.6590  20.8199  20.8199  21.2069  21.2069
    22.2217  22.2217  22.3229  22.3229  24.4409  24.4431

          k = 0.1667 0.2887 0.0000 (  6240 PWs)   bands (ev):

   -85.0197 -85.0123 -85.0090 -85.0041 -85.0034 -85.0005 -84.9998 -84.9989
   -84.9985 -84.9976 -84.9939 -84.9928 -45.3354 -45.3227 -45.3225 -45.3161
   -45.3032 -45.2874 -45.2832 -45.2771 -45.2703 -45.2653 -45.2551 -45.2487
   -45.2470 -45.2456 -45.2364 -45.2359 -45.2325 -45.2181 -45.2180 -45.2068
   -45.1953 -45.1836 -45.1626 -45.1478 -45.1273 -45.1241 -45.1197 -45.1130
   -45.1038 -45.0887 -45.0877 -45.0588 -45.0421 -45.0349 -45.0301 -45.0149
   -38.7457 -38.7436 -38.6322 -38.6314 -15.0492 -15.0453 -15.0415 -15.0415
   -15.0405 -15.0299 -14.9378 -14.9353 -14.9349 -14.9325 -14.8900 -14.8812
    10.4985  12.5523  12.5687  13.4794  13.6882  13.8447  13.9914  14.0684
    14.1107  14.1676  14.4601  14.4994  14.6516  14.7448  14.7632  15.0211
    15.1037  15.1808  15.1874  15.2420  15.2549  15.2790  15.3097  15.3300
    15.3550  15.6565  15.6820  15.8609  15.8859  15.9615  15.9784  15.9996
    16.1061  16.1590  16.2355  16.3435  16.4077  16.4352  16.4820  16.5252
    16.5973  16.6595  16.6704  16.7070  16.7359  16.8147  16.8646  16.9337
    16.9343  16.9534  16.9643  17.0189  17.0782  17.1432  17.2212  17.2446
    17.2639  17.3822  17.4589  17.5622  17.5702  17.6987  17.7618  17.7924
    17.8052  17.9710  18.0407  18.1968  18.5911  19.2895  19.2936  19.2977
    19.3647  19.3798  19.3937  19.4210  19.5327  19.5468  19.6323  19.7058
    19.9973  20.2347  20.4077  20.4614  20.5228  20.6782  20.8857  21.2685
    21.3584  21.7587  22.0877  22.8598  23.1576  23.6087

          k = 0.1667 0.2887 0.1535 (  6242 PWs)   bands (ev):

   -85.0189 -85.0143 -85.0071 -85.0036 -85.0032 -85.0023 -85.0001 -84.9999
   -84.9974 -84.9960 -84.9943 -84.9932 -45.3307 -45.3240 -45.3176 -45.3082
   -45.3012 -45.2907 -45.2857 -45.2783 -45.2744 -45.2618 -45.2598 -45.2568
   -45.2478 -45.2421 -45.2412 -45.2400 -45.2287 -45.2176 -45.2135 -45.2102
   -45.1890 -45.1879 -45.1560 -45.1465 -45.1325 -45.1309 -45.1222 -45.1120
   -45.0991 -45.0900 -45.0893 -45.0491 -45.0415 -45.0401 -45.0297 -45.0266
   -38.7454 -38.7439 -38.6321 -38.6315 -15.0484 -15.0450 -15.0427 -15.0427
   -15.0380 -15.0311 -14.9377 -14.9357 -14.9346 -14.9327 -14.8887 -14.8825
    10.6461  11.7420  13.3122  13.5612  13.7061  13.7758  13.9730  14.1253
    14.1611  14.1956  14.5138  14.5419  14.6084  14.6844  14.7775  14.8926
    14.9089  14.9561  14.9679  15.1171  15.1379  15.1812  15.5757  15.5809
    15.6458  15.7554  15.7895  15.8811  15.9252  16.0810  16.0959  16.1165
    16.1285  16.2315  16.2677  16.3395  16.3590  16.4249  16.4979  16.5439
    16.5749  16.5865  16.6464  16.6955  16.7445  16.7858  16.7915  16.8741
    16.9060  16.9264  16.9357  16.9976  17.0994  17.1102  17.2521  17.2956
    17.2965  17.3493  17.4615  17.5005  17.5209  17.5962  17.6559  17.7431
    17.7853  17.8387  17.9160  18.0599  18.8544  19.2195  19.2486  19.2505
    19.3677  19.4294  19.4429  19.4586  19.5583  19.5967  19.6245  19.6655
    20.0310  20.2561  20.2902  20.4953  20.5453  20.6459  20.8613  21.1892
    21.8222  21.9680  22.2058  22.6638  23.3426  23.5915

          k = 0.1667 0.2887-0.3069 (  6252 PWs)   bands (ev):

   -85.0171 -85.0171 -85.0046 -85.0046 -85.0028 -85.0028 -85.0009 -85.0009
   -84.9956 -84.9956 -84.9943 -84.9943 -45.3282 -45.3282 -45.3038 -45.3038
   -45.3032 -45.3032 -45.2847 -45.2847 -45.2702 -45.2702 -45.2617 -45.2617
   -45.2482 -45.2482 -45.2408 -45.2408 -45.2268 -45.2268 -45.2064 -45.2064
   -45.1973 -45.1973 -45.1452 -45.1452 -45.1350 -45.1350 -45.1179 -45.1179
   -45.0965 -45.0965 -45.0811 -45.0811 -45.0465 -45.0465 -45.0323 -45.0323
   -38.7447 -38.7447 -38.6318 -38.6318 -15.0460 -15.0460 -15.0437 -15.0437
   -15.0342 -15.0342 -14.9370 -14.9370 -14.9334 -14.9334 -14.8855 -14.8855
    11.0716  11.0716  13.6050  13.6050  13.7511  13.7511  14.0441  14.0441
    14.3602  14.3602  14.3951  14.3951  14.6392  14.6392  14.7326  14.7326
    14.9508  14.9508  14.9565  14.9565  14.9919  14.9919  15.7802  15.7802
    15.8088  15.8088  15.9665  15.9665  16.0172  16.0172  16.0808  16.0808
    16.1920  16.1920  16.3686  16.3686  16.4701  16.4701  16.5071  16.5071
    16.5717  16.5717  16.6648  16.6648  16.7466  16.7466  16.7902  16.7902
    16.9075  16.9075  16.9841  16.9841  17.0132  17.0132  17.2180  17.2180
    17.3729  17.3729  17.4236  17.4236  17.4429  17.4429  17.5331  17.5331
    17.7899  17.7899  17.9899  17.9899  19.1269  19.1269  19.2204  19.2204
    19.3727  19.3727  19.4621  19.4621  19.5297  19.5297  19.7412  19.7412
    20.1528  20.1528  20.3883  20.3883  20.6007  20.6007  20.8751  20.8751
    22.3486  22.3486  22.9048  22.9048  23.1720  23.1721

          k = 0.1667 0.4811 0.0000 (  6247 PWs)   bands (ev):

   -85.0168 -85.0129 -85.0067 -85.0045 -85.0037 -85.0021 -85.0013 -84.9994
   -84.9975 -84.9972 -84.9953 -84.9932 -45.3298 -45.3202 -45.3084 -45.3079
   -45.2954 -45.2910 -45.2809 -45.2745 -45.2674 -45.2647 -45.2634 -45.2621
   -45.2577 -45.2415 -45.2386 -45.2353 -45.2266 -45.2204 -45.2138 -45.2034
   -45.1889 -45.1864 -45.1602 -45.1492 -45.1449 -45.1397 -45.1308 -45.1262
   -45.1069 -45.1010 -45.0911 -45.0702 -45.0512 -45.0440 -45.0313 -45.0268
   -38.7444 -38.7434 -38.6316 -38.6307 -15.0517 -15.0478 -15.0464 -15.0424
   -15.0405 -15.0319 -14.9413 -14.9363 -14.9357 -14.9342 -14.8883 -14.8823
    11.3780  12.5017  13.1972  13.2254  13.5774  13.7825  13.9029  14.2636
    14.2745  14.6098  14.7300  14.8256  14.8745  15.0004  15.0214  15.0493
    15.0690  15.1348  15.2728  15.2760  15.3656  15.4567  15.5020  15.5231
    15.5234  15.5706  15.6371  15.6446  15.6538  15.7292  15.7456  15.8743
    15.9153  16.0459  16.0524  16.1132  16.1155  16.1708  16.2031  16.3632
    16.4120  16.4591  16.5675  16.6596  16.6717  16.7143  16.7170  16.7312
    16.8393  16.8649  16.9238  16.9439  16.9975  17.0535  17.1279  17.1403
    17.2034  17.2353  17.3148  17.3333  17.4814  17.5034  17.5150  17.6375
    17.7370  17.7701  17.9064  17.9503  18.5123  19.0945  19.1573  19.3088
    19.3243  19.3665  19.4028  19.4305  19.4835  19.5184  19.5489  19.6023
    19.7140  19.9871  20.2280  20.3202  20.4545  20.6407  20.7653  21.2844
    21.4795  22.8014  23.1369  23.6355  23.9260  24.8458

          k = 0.1667 0.4811 0.1535 (  6255 PWs)   bands (ev):

   -85.0163 -85.0136 -85.0069 -85.0046 -85.0039 -85.0024 -85.0004 -84.9995
   -84.9977 -84.9965 -84.9956 -84.9936 -45.3341 -45.3249 -45.3125 -45.3039
   -45.2957 -45.2910 -45.2836 -45.2748 -45.2716 -45.2702 -45.2680 -45.2564
   -45.2478 -45.2438 -45.2379 -45.2361 -45.2290 -45.2196 -45.2172 -45.2060
   -45.2023 -45.1951 -45.1575 -45.1509 -45.1434 -45.1413 -45.1398 -45.1340
   -45.1026 -45.0999 -45.0908 -45.0745 -45.0535 -45.0484 -45.0319 -45.0301
   -38.7443 -38.7436 -38.6314 -38.6308 -15.0515 -15.0487 -15.0466 -15.0438
   -15.0380 -15.0322 -14.9412 -14.9375 -14.9354 -14.9336 -14.8875 -14.8832
    11.5081  12.4219  12.6943  13.3196  13.5920  13.8984  14.0909  14.3211
    14.4860  14.6202  14.7610  14.8408  14.8578  14.9143  14.9711  15.0536
    15.0887  15.0939  15.1525  15.3026  15.3541  15.4037  15.4353  15.4529
    15.4897  15.5394  15.5884  15.6451  15.7315  15.7926  15.8486  15.9506
    16.0334  16.0391  16.0828  16.0887  16.1311  16.1576  16.2108  16.3187
    16.4218  16.4658  16.6026  16.6153  16.6773  16.6963  16.7220  16.7664
    16.7869  16.8706  16.9539  16.9704  16.9918  17.0242  17.1184  17.1461
    17.2151  17.2510  17.2866  17.3015  17.3664  17.4681  17.5257  17.5685
    17.6213  17.8189  17.8977  17.9812  18.6596  19.0034  19.1610  19.2445
    19.2911  19.3163  19.3365  19.4201  19.4831  19.5039  19.5876  19.6400
    19.8046  19.9620  20.3143  20.3773  20.4971  20.6723  20.9500  21.2331
    21.9877  22.5792  22.8583  23.2890  23.7136  24.3528

          k = 0.1667 0.4811-0.3069 (  6250 PWs)   bands (ev):

   -85.0150 -85.0150 -85.0061 -85.0061 -85.0029 -85.0029 -84.9996 -84.9996
   -84.9971 -84.9971 -84.9946 -84.9946 -45.3308 -45.3308 -45.3024 -45.3024
   -45.2881 -45.2881 -45.2822 -45.2822 -45.2697 -45.2697 -45.2536 -45.2536
   -45.2449 -45.2449 -45.2309 -45.2309 -45.2248 -45.2248 -45.2168 -45.2168
   -45.2009 -45.2009 -45.1494 -45.1494 -45.1413 -45.1413 -45.1365 -45.1365
   -45.0983 -45.0983 -45.0841 -45.0841 -45.0511 -45.0511 -45.0315 -45.0315
   -38.7439 -38.7439 -38.6311 -38.6311 -15.0504 -15.0504 -15.0457 -15.0457
   -15.0341 -15.0341 -14.9398 -14.9398 -14.9340 -14.9340 -14.8853 -14.8853
    11.8843  11.8843  12.9219  12.9219  13.7510  13.7510  14.4974  14.4974
    14.6589  14.6589  14.7026  14.7026  14.8349  14.8349  14.9773  14.9773
    15.1495  15.1495  15.2078  15.2078  15.2352  15.2352  15.4517  15.4517
    15.5281  15.5281  15.5867  15.5867  15.8067  15.8067  15.9318  15.9318
    16.0607  16.0607  16.1346  16.1346  16.1970  16.1970  16.2887  16.2887
    16.3896  16.3896  16.5715  16.5715  16.6992  16.6992  16.7531  16.7531
    16.8436  16.8436  16.9339  16.9339  17.0375  17.0375  17.0940  17.0940
    17.2385  17.2385  17.3208  17.3208  17.3882  17.3882  17.4165  17.4165
    17.6891  17.6891  18.0011  18.0011  18.8519  18.8519  19.1629  19.1629
    19.2654  19.2654  19.3562  19.3562  19.4762  19.4762  19.6587  19.6587
    19.9099  19.9099  20.4679  20.4679  20.5437  20.5437  21.2808  21.2808
    22.4479  22.4479  22.9605  22.9605  23.2388  23.2388

          k = 0.3333 0.5774 0.0000 (  6246 PWs)   bands (ev):

   -85.0144 -85.0144 -85.0055 -85.0043 -85.0043 -85.0023 -85.0013 -85.0013
   -84.9975 -84.9955 -84.9955 -84.9943 -45.3218 -45.3218 -45.3023 -45.3018
   -45.2940 -45.2924 -45.2923 -45.2763 -45.2763 -45.2690 -45.2595 -45.2532
   -45.2532 -45.2481 -45.2480 -45.2230 -45.2230 -45.2209 -45.2066 -45.2066
   -45.1900 -45.1900 -45.1554 -45.1524 -45.1500 -45.1381 -45.1381 -45.1126
   -45.1078 -45.1078 -45.0739 -45.0738 -45.0534 -45.0534 -45.0463 -45.0254
   -38.7437 -38.7437 -38.6314 -38.6304 -15.0489 -15.0489 -15.0481 -15.0463
   -15.0365 -15.0365 -14.9386 -14.9386 -14.9361 -14.9361 -14.8876 -14.8828
    12.2567  12.2568  12.6311  13.6869  13.6869  13.8989  13.8998  13.8998
    14.1621  14.9758  14.9758  15.0189  15.0189  15.0968  15.1867  15.2041
    15.2041  15.2442  15.2621  15.2621  15.2662  15.2848  15.3285  15.3285
    15.4661  15.4661  15.6153  15.6153  15.7193  15.7193  15.7307  15.7498
    15.8844  15.8844  15.9423  15.9423  16.0416  16.1280  16.1876  16.2158
    16.2287  16.2288  16.6178  16.6958  16.6958  16.7451  16.7467  16.7467
    16.7676  16.8621  16.8621  16.9135  16.9135  16.9727  17.0164  17.0164
    17.2259  17.3590  17.3590  17.4167  17.4167  17.5127  17.5577  17.6416
    17.6416  17.7215  17.7215  17.8711  18.4549  19.0533  19.1623  19.3002
    19.3002  19.3954  19.3954  19.4281  19.5408  19.5408  19.6311  19.6311
    19.7727  20.0182  20.0182  20.2926  20.3918  20.3918  20.8714  20.8714
    21.2344  24.2992  24.2993  24.5879  24.5925  24.8064

          k = 0.3333 0.5774 0.1535 (  6267 PWs)   bands (ev):

   -85.0143 -85.0143 -85.0053 -85.0053 -85.0051 -85.0031 -85.0002 -85.0002
   -84.9968 -84.9959 -84.9958 -84.9947 -45.3309 -45.3309 -45.3161 -45.3050
   -45.2932 -45.2932 -45.2842 -45.2841 -45.2793 -45.2793 -45.2663 -45.2663
   -45.2425 -45.2424 -45.2400 -45.2351 -45.2351 -45.2277 -45.2095 -45.2095
   -45.2044 -45.2044 -45.1642 -45.1519 -45.1448 -45.1404 -45.1404 -45.1398
   -45.1107 -45.1107 -45.0903 -45.0902 -45.0499 -45.0499 -45.0478 -45.0331
   -38.7437 -38.7437 -38.6312 -38.6306 -15.0504 -15.0504 -15.0478 -15.0466
   -15.0349 -15.0349 -14.9403 -14.9403 -14.9348 -14.9348 -14.8870 -14.8835
    12.3532  12.3533  12.7397  13.2134  13.2135  13.4908  14.3728  14.3728
    14.5286  14.9742  14.9742  15.0221  15.0221  15.1022  15.1389  15.1612
    15.1612  15.2368  15.2409  15.2409  15.2666  15.3199  15.3309  15.3309
    15.4157  15.4157  15.5346  15.5346  15.6561  15.7181  15.7851  15.7852
    15.9023  15.9023  15.9948  15.9948  16.0396  16.0812  16.2194  16.2194
    16.2357  16.2647  16.5626  16.5626  16.6033  16.6752  16.7678  16.7678
    16.8417  16.9109  16.9109  16.9660  16.9864  16.9864  17.0534  17.0534
    17.2462  17.2479  17.2479  17.4356  17.4356  17.4378  17.5262  17.5262
    17.5350  17.7880  17.8370  17.8370  18.6266  18.9991  19.1857  19.2657
    19.2657  19.3174  19.3174  19.3504  19.4180  19.4180  19.7475  19.7475
    19.9281  19.9909  19.9909  20.2971  20.3828  20.3828  21.2126  21.2126
    21.4462  23.4982  23.5966  23.5966  24.3111  24.3111

          k = 0.3333 0.5774-0.3069 (  6282 PWs)   bands (ev):

   -85.0141 -85.0141 -85.0061 -85.0061 -85.0043 -85.0043 -84.9991 -84.9991
   -84.9964 -84.9964 -84.9956 -84.9956 -45.3344 -45.3344 -45.3179 -45.3179
   -45.2908 -45.2908 -45.2814 -45.2814 -45.2759 -45.2759 -45.2607 -45.2607
   -45.2479 -45.2479 -45.2455 -45.2455 -45.2391 -45.2391 -45.2151 -45.2151
   -45.2056 -45.2056 -45.1614 -45.1614 -45.1548 -45.1548 -45.1477 -45.1477
   -45.1117 -45.1117 -45.0886 -45.0886 -45.0531 -45.0531 -45.0453 -45.0453
   -38.7437 -38.7437 -38.6309 -38.6309 -15.0517 -15.0517 -15.0472 -15.0472
   -15.0335 -15.0335 -14.9413 -14.9413 -14.9340 -14.9340 -14.8854 -14.8854
    12.5307  12.5307  12.8709  12.8709  13.0433  13.0433  14.7950  14.7950
    14.8349  14.8349  14.8897  14.8897  14.9545  14.9545  15.1756  15.1756
    15.1861  15.1861  15.2224  15.2224  15.2805  15.2805  15.3350  15.3350
    15.3360  15.3360  15.6302  15.6302  15.6430  15.6430  15.7023  15.7023
    15.9257  15.9257  16.0370  16.0370  16.1204  16.1204  16.1537  16.1537
    16.3002  16.3002  16.4753  16.4753  16.6115  16.6115  16.7816  16.7816
    16.9201  16.9201  16.9382  16.9382  17.0487  17.0487  17.1396  17.1396
    17.1457  17.1457  17.3003  17.3003  17.4013  17.4013  17.4574  17.4574
    17.6459  17.6459  17.9167  17.9167  18.8543  18.8543  19.2272  19.2272
    19.2362  19.2362  19.2544  19.2544  19.3545  19.3545  19.8593  19.8593
    19.9160  19.9160  20.1704  20.1704  20.4114  20.4114  21.6775  21.6775
    22.2365  22.2365  22.8198  22.8198  24.2903  24.2903

     the Fermi energy is    18.2986 ev

!    total energy              =   -4552.78794822 Ry
     estimated scf accuracy    <          5.7E-10 Ry
     smearing contrib. (-TS)   =       0.02103800 Ry
     internal energy E=F+TS    =   -4552.80898622 Ry

     The total energy is F=E-TS. E is the sum of the following terms:
     one-electron contribution =   -2475.11250050 Ry
     hartree contribution      =    1402.03472233 Ry
     xc contribution           =    -486.85452263 Ry
     ewald contribution        =   -2992.87668541 Ry

     convergence has been achieved in  21 iterations

     Writing all to output data dir ./outdir/ni3ti_v3.save/ :
     XML data file, charge density, pseudopotentials, collected wavefunctions

     init_run     :    114.17s CPU     41.29s WALL (       1 calls)
     electrons    :   9028.01s CPU   2543.88s WALL (       1 calls)

     Called by init_run:
     wfcinit      :    107.94s CPU     38.52s WALL (       1 calls)
     potinit      :      1.02s CPU      0.83s WALL (       1 calls)
     hinit0       :      1.34s CPU      1.06s WALL (       1 calls)

     Called by electrons:
     c_bands      :   7691.87s CPU   2070.57s WALL (      21 calls)
     sum_band     :   1245.21s CPU    455.15s WALL (      21 calls)
     v_of_rho     :      2.73s CPU      0.84s WALL (      22 calls)
     newd         :     87.43s CPU     17.29s WALL (      22 calls)
     mix_rho      :      2.71s CPU      0.66s WALL (      21 calls)

     Called by c_bands:
     init_us_2    :     87.16s CPU      8.11s WALL (     903 calls)
     cegterg      :   7366.46s CPU   2040.75s WALL (     441 calls)

     Called by *egterg:
     cdiaghg      :   1639.90s CPU    149.62s WALL (    1388 calls)
     h_psi        :   4089.08s CPU   1771.55s WALL (    1409 calls)
     s_psi        :    252.60s CPU     23.14s WALL (    1409 calls)
     g_psi        :     66.43s CPU      6.05s WALL (     947 calls)

     Called by h_psi:
     h_psi:calbec :    347.26s CPU     32.12s WALL (    1409 calls)
     vloc_psi     :   3455.77s CPU   1713.76s WALL (    1409 calls)
                                        0.00s GPU  (    1409 calls)
     add_vuspsi   :    231.01s CPU     20.74s WALL (    1409 calls)

     General routines
     calbec       :    482.61s CPU     44.61s WALL (    1850 calls)
     fft          :      2.27s CPU      0.96s WALL (     284 calls)
     ffts         :      3.24s CPU      1.05s WALL (     477 calls)
     fftw         :   4286.48s CPU   2069.54s WALL (  373414 calls)
     interpolate  :      1.03s CPU      0.80s WALL (      22 calls)

     Parallel routines

     PWSCF        :      2h32m CPU  43m 6.44s WALL


   This run was terminated on:   2:35:49  14Jun2026            

=------------------------------------------------------------------------------=
   JOB DONE.
=------------------------------------------------------------------------------=
