
     Program PWSCF v.7.5 starts on 13Jun2026 at 20:18:36 

     This program is part of the open-source Quantum ESPRESSO suite
     for quantum simulation of materials; please cite
         "P. Giannozzi et al., J. Phys.:Condens. Matter 21 395502 (2009);
         "P. Giannozzi et al., J. Phys.:Condens. Matter 29 465901 (2017);
         "P. Giannozzi et al., J. Chem. Phys. 152 154105 (2020);
          URL http://www.quantum-espresso.org", 
     in publications or presentations arising from this work. More details at
     http://www.quantum-espresso.org/quote

     Parallel version (MPI & OpenMP), running on      12 processor cores
     Number of MPI processes:                 1
     Threads/MPI process:                    12

     MPI processes distributed on     1 nodes
     2020 MiB available memory on the printing compute node when the environment starts

     Reading input from ni3ti_eta_v2.scf.in

     Current dimensions of program PWSCF are:
     Max number of different atomic species (ntypx) = 10
     Max number of k-points (npk) =  40000
     Max angular momentum in pseudopotentials (lmaxx) =  4
     file Ni.pbe-spn-rrkjus_psl.1.0.0.UPF: wavefunction(s)  3P 3D renormalized
     file Ti.pbe-spn-rrkjus_psl.1.0.0.UPF: wavefunction(s)  3S 3D renormalized

     Subspace diagonalization in iterative solution of the eigenvalue problem:
     a serial algorithm will be used


     G-vector sticks info
     --------------------
     sticks:   dense  smooth     PW     G-vecs:    dense   smooth      PW
     Sum        2245    1135    313               141285    50113    7631

     Using Slab Decomposition



     bravais-lattice index     =            4
     lattice parameter (alat)  =       9.5430  a.u.
     unit-cell volume          =    1226.0452 (a.u.)^3
     number of atoms/cell      =           16
     number of atomic types    =            2
     number of electrons       =       264.00
     number of Kohn-Sham states=          158
     kinetic-energy cutoff     =      45.0000  Ry
     charge density cutoff     =     360.0000  Ry
     scf convergence threshold =      1.0E-08
     mixing beta               =       0.4000
     number of iterations used =            8  plain     mixing
     Exchange-correlation= PBE
                           (   1   4   3   4   0   0   0)

     celldm(1)=   9.543000  celldm(2)=   0.000000  celldm(3)=   1.629000
     celldm(4)=   0.000000  celldm(5)=   0.000000  celldm(6)=   0.000000

     crystal axes: (cart. coord. in units of alat)
               a(1) = (   1.000000   0.000000   0.000000 )  
               a(2) = (  -0.500000   0.866025   0.000000 )  
               a(3) = (   0.000000   0.000000   1.629000 )  

     reciprocal axes: (cart. coord. in units 2 pi/alat)
               b(1) = (  1.000000  0.577350 -0.000000 )  
               b(2) = (  0.000000  1.154701  0.000000 )  
               b(3) = (  0.000000 -0.000000  0.613874 )  


     PseudoPot. # 1 for Ni read from file:
     ./pseudo/Ni.pbe-spn-rrkjus_psl.1.0.0.UPF
     MD5 check sum: 8b3fc9aac6dafe35f580d41bb18c3945
     Pseudo is Ultrasoft + core correction, Zval = 18.0
     Generated using &quot;atomic&quot; code by A. Dal Corso  v.6.3
     Using radial grid of 1195 points,  6 beta functions with: 
                l(1) =   0
                l(2) =   0
                l(3) =   1
                l(4) =   1
                l(5) =   2
                l(6) =   2
     Q(r) pseudized with 0 coefficients 


     PseudoPot. # 2 for Ti read from file:
     ./pseudo/Ti.pbe-spn-rrkjus_psl.1.0.0.UPF
     MD5 check sum: e281089c08e14b8efcf92e44a67ada65
     Pseudo is Ultrasoft + core correction, Zval = 12.0
     Generated using &quot;atomic&quot; code by A. Dal Corso  v.6.2.2
     Using radial grid of 1177 points,  6 beta functions with: 
                l(1) =   0
                l(2) =   0
                l(3) =   1
                l(4) =   1
                l(5) =   2
                l(6) =   2
     Q(r) pseudized with 0 coefficients 


     atomic species   valence    mass     pseudopotential
     Ni               18.00    58.69300     Ni( 1.00)
     Ti               12.00    47.86700     Ti( 1.00)

      4 Sym. Ops., with inversion, found ( 2 have fractional translation)



   Cartesian axes

     site n.     atom                  positions (alat units)
         1        Ti     tau(   1) = (   0.0000000   0.0000000   0.0000000  )
         2        Ti     tau(   2) = (   0.0000000   0.0000000   0.8145000  )
         3        Ti     tau(   3) = (  -0.0000005   0.5773506   0.4072500  )
         4        Ti     tau(   4) = (   0.5000005   0.2886748   1.2217500  )
         5        Ni     tau(   5) = (   0.5000000   0.0000000   0.0000000  )
         6        Ni     tau(   6) = (  -0.2500000   0.4330127   0.0000000  )
         7        Ni     tau(   7) = (   0.2500000   0.4330127   0.0000000  )
         8        Ni     tau(   8) = (   0.5000000   0.0000000   0.8145000  )
         9        Ni     tau(   9) = (  -0.2500000   0.4330127   0.8145000  )
        10        Ni     tau(  10) = (   0.2500000   0.4330127   0.8145000  )
        11        Ni     tau(  11) = (   0.5000000   0.5678511   0.4072500  )
        12        Ni     tau(  12) = (   0.0000000   0.2981743   1.2217500  )
        13        Ni     tau(  13) = (  -0.0696225   0.7169383   0.4072500  )
        14        Ni     tau(  14) = (   0.5696225   0.1490871   1.2217500  )
        15        Ni     tau(  15) = (   0.7417735   0.1490871   0.4072500  )
        16        Ni     tau(  16) = (  -0.2417735   0.7169383   1.2217500  )

     number of k points=    60  Marzari-Vanderbilt smearing, width (Ry)=  0.0200
                       cart. coord. in units 2pi/alat
        k(    1) = (   0.0000000   0.0000000   0.0000000), wk =   0.0138889
        k(    2) = (   0.0000000   0.0000000   0.1534684), wk =   0.0277778
        k(    3) = (   0.0000000   0.0000000  -0.3069368), wk =   0.0138889
        k(    4) = (   0.0000000   0.1924501   0.0000000), wk =   0.0277778
        k(    5) = (   0.0000000   0.1924501   0.1534684), wk =   0.0555556
        k(    6) = (   0.0000000   0.1924501  -0.3069368), wk =   0.0277778
        k(    7) = (   0.0000000   0.3849002   0.0000000), wk =   0.0277778
        k(    8) = (   0.0000000   0.3849002   0.1534684), wk =   0.0555556
        k(    9) = (   0.0000000   0.3849002  -0.3069368), wk =   0.0277778
        k(   10) = (   0.0000000  -0.5773503   0.0000000), wk =   0.0138889
        k(   11) = (   0.0000000  -0.5773503   0.1534684), wk =   0.0277778
        k(   12) = (   0.0000000  -0.5773503  -0.3069368), wk =   0.0138889
        k(   13) = (   0.1666667   0.2886751   0.0000000), wk =   0.0277778
        k(   14) = (   0.1666667   0.2886751   0.1534684), wk =   0.0555556
        k(   15) = (   0.1666667   0.2886751  -0.3069368), wk =   0.0277778
        k(   16) = (   0.1666667   0.4811252   0.0000000), wk =   0.0277778
        k(   17) = (   0.1666667   0.4811252   0.1534684), wk =   0.0555556
        k(   18) = (   0.1666667   0.4811252  -0.3069368), wk =   0.0277778
        k(   19) = (   0.3333333   0.5773503   0.0000000), wk =   0.0277778
        k(   20) = (   0.3333333   0.5773503   0.1534684), wk =   0.0555556
        k(   21) = (   0.3333333   0.5773503  -0.3069368), wk =   0.0277778
        k(   22) = (  -0.1666667   0.0962250   0.0000000), wk =   0.0277778
        k(   23) = (   0.1666667   0.0962250   0.0000000), wk =   0.0277778
        k(   24) = (  -0.1666667   0.0962250   0.1534684), wk =   0.0555556
        k(   25) = (   0.1666667   0.0962250   0.1534684), wk =   0.0555556
        k(   26) = (  -0.1666667   0.0962250  -0.3069368), wk =   0.0277778
        k(   27) = (   0.1666667   0.0962250  -0.3069368), wk =   0.0277778
        k(   28) = (  -0.3333333   0.1924501   0.0000000), wk =   0.0277778
        k(   29) = (   0.3333333   0.1924501   0.0000000), wk =   0.0277778
        k(   30) = (  -0.3333333   0.1924501   0.1534684), wk =   0.0555556
        k(   31) = (   0.3333333   0.1924501   0.1534684), wk =   0.0555556
        k(   32) = (  -0.3333333   0.1924501  -0.3069368), wk =   0.0277778
        k(   33) = (   0.3333333   0.1924501  -0.3069368), wk =   0.0277778
        k(   34) = (   0.5000000  -0.2886751   0.0000000), wk =   0.0138889
        k(   35) = (  -0.5000000  -0.2886751   0.0000000), wk =   0.0138889
        k(   36) = (   0.5000000  -0.2886751   0.1534684), wk =   0.0277778
        k(   37) = (  -0.5000000  -0.2886751   0.1534684), wk =   0.0277778
        k(   38) = (   0.5000000  -0.2886751  -0.3069368), wk =   0.0138889
        k(   39) = (  -0.5000000  -0.2886751  -0.3069368), wk =   0.0138889
        k(   40) = (  -0.1666667   0.2886751   0.0000000), wk =   0.0277778
        k(   41) = (   0.3333333   0.0000000   0.0000000), wk =   0.0277778
        k(   42) = (  -0.1666667   0.2886751   0.1534684), wk =   0.0555556
        k(   43) = (   0.3333333   0.0000000   0.1534684), wk =   0.0555556
        k(   44) = (  -0.1666667   0.2886751  -0.3069368), wk =   0.0277778
        k(   45) = (   0.3333333   0.0000000  -0.3069368), wk =   0.0277778
        k(   46) = (  -0.3333333   0.3849002   0.0000000), wk =   0.0277778
        k(   47) = (   0.5000000   0.0962250   0.0000000), wk =   0.0277778
        k(   48) = (  -0.3333333  -0.3849002   0.0000000), wk =   0.0277778
        k(   49) = (   0.5000000  -0.0962250   0.0000000), wk =   0.0277778
        k(   50) = (  -0.1666667   0.4811252   0.0000000), wk =   0.0277778
        k(   51) = (  -0.3333333   0.3849002   0.1534684), wk =   0.0555556
        k(   52) = (   0.5000000   0.0962250   0.1534684), wk =   0.0555556
        k(   53) = (  -0.3333333  -0.3849002  -0.1534684), wk =   0.0555556
        k(   54) = (   0.5000000  -0.0962250  -0.1534684), wk =   0.0555556
        k(   55) = (  -0.1666667   0.4811252  -0.1534684), wk =   0.0555556
        k(   56) = (  -0.3333333   0.3849002  -0.3069368), wk =   0.0277778
        k(   57) = (   0.5000000   0.0962250  -0.3069368), wk =   0.0277778
        k(   58) = (  -0.3333333  -0.3849002   0.3069368), wk =   0.0277778
        k(   59) = (   0.5000000  -0.0962250   0.3069368), wk =   0.0277778
        k(   60) = (  -0.1666667   0.4811252   0.3069368), wk =   0.0277778

     Dense  grid:   141285 G-vectors     FFT dimensions: (  60,  60,  96)

     Smooth grid:    50113 G-vectors     FFT dimensions: (  45,  45,  72)

     Estimated max dynamical RAM per process >       1.43 GB

     Check: negative core charge=   -0.000005

     Initial potential from superposition of free atoms

     starting charge     263.9911, renormalised to     264.0000
     Starting wfcs are  160 randomized atomic wfcs

     total cpu time spent up to now is      468.8 secs

     per-process dynamical memory:  1075.7 Mb

     Self-consistent Calculation

     iteration #  1     ecut=    45.00 Ry     beta= 0.40
     Davidson diagonalization with overlap
     ethr =  1.00E-02,  avg # of iterations =  5.3

     negative rho (up, down):  1.140E-01 0.000E+00

     total cpu time spent up to now is     1665.1 secs

     total energy              =   -4499.17158589 Ry
     estimated scf accuracy    <      37.62946495 Ry

     iteration #  2     ecut=    45.00 Ry     beta= 0.40
     Davidson diagonalization with overlap
     ethr =  1.00E-02,  avg # of iterations =  3.0

     negative rho (up, down):  5.222E-01 0.000E+00

     total cpu time spent up to now is     2948.2 secs

     total energy              =   -4493.55325682 Ry
     estimated scf accuracy    <     645.93863018 Ry

     iteration #  3     ecut=    45.00 Ry     beta= 0.40
     Davidson diagonalization with overlap
     ethr =  1.00E-02,  avg # of iterations =  3.0

     negative rho (up, down):  3.005E-02 0.000E+00

     total cpu time spent up to now is     4384.6 secs

     total energy              =   -4511.41813640 Ry
     estimated scf accuracy    <      24.65730928 Ry

     iteration #  4     ecut=    45.00 Ry     beta= 0.40
     Davidson diagonalization with overlap
     ethr =  9.34E-03,  avg # of iterations =  2.0

     negative rho (up, down):  5.253E-03 0.000E+00

     total cpu time spent up to now is     5260.8 secs

     total energy              =   -4512.91862512 Ry
     estimated scf accuracy    <       3.52251883 Ry

     iteration #  5     ecut=    45.00 Ry     beta= 0.40
     Davidson diagonalization with overlap
     ethr =  1.33E-03,  avg # of iterations =  6.0

     negative rho (up, down):  7.678E-03 0.000E+00

     total cpu time spent up to now is     6529.3 secs

     total energy              =   -4513.18149605 Ry
     estimated scf accuracy    <       2.42860204 Ry

     iteration #  6     ecut=    45.00 Ry     beta= 0.40
     Davidson diagonalization with overlap
     ethr =  9.20E-04,  avg # of iterations =  2.3

     negative rho (up, down):  9.514E-03 0.000E+00

     total cpu time spent up to now is     7482.7 secs

     total energy              =   -4513.32566408 Ry
     estimated scf accuracy    <       0.98813944 Ry

     iteration #  7     ecut=    45.00 Ry     beta= 0.40
     Davidson diagonalization with overlap
     ethr =  3.74E-04,  avg # of iterations =  2.2

     negative rho (up, down):  1.571E-02 0.000E+00

     total cpu time spent up to now is     8383.0 secs

     total energy              =   -4513.30008821 Ry
     estimated scf accuracy    <       0.71870957 Ry

     iteration #  8     ecut=    45.00 Ry     beta= 0.40
     Davidson diagonalization with overlap
     ethr =  2.72E-04,  avg # of iterations =  2.1

     negative rho (up, down):  1.770E-02 0.000E+00

     total cpu time spent up to now is     9455.4 secs

     total energy              =   -4513.39642277 Ry
     estimated scf accuracy    <       0.16931478 Ry

     iteration #  9     ecut=    45.00 Ry     beta= 0.40
     Davidson diagonalization with overlap
     ethr =  6.41E-05,  avg # of iterations =  2.6

     negative rho (up, down):  1.859E-02 0.000E+00

     total cpu time spent up to now is    10383.5 secs

     total energy              =   -4513.42064673 Ry
     estimated scf accuracy    <       0.17566101 Ry

     iteration # 10     ecut=    45.00 Ry     beta= 0.40
     Davidson diagonalization with overlap
     ethr =  6.41E-05,  avg # of iterations =  1.0

     negative rho (up, down):  1.902E-02 0.000E+00

     total cpu time spent up to now is    11396.9 secs

     total energy              =   -4513.43685591 Ry
     estimated scf accuracy    <       0.01247380 Ry

     iteration # 11     ecut=    45.00 Ry     beta= 0.40
     Davidson diagonalization with overlap
     ethr =  4.72E-06,  avg # of iterations =  5.3

     negative rho (up, down):  2.099E-02 0.000E+00

     total cpu time spent up to now is    12550.7 secs

     total energy              =   -4513.43926385 Ry
     estimated scf accuracy    <       0.02031353 Ry

     iteration # 12     ecut=    45.00 Ry     beta= 0.40
     Davidson diagonalization with overlap
     ethr =  4.72E-06,  avg # of iterations =  2.0

     negative rho (up, down):  2.129E-02 0.000E+00

     total cpu time spent up to now is    13546.3 secs

     total energy              =   -4513.44136169 Ry
     estimated scf accuracy    <       0.00306675 Ry

     iteration # 13     ecut=    45.00 Ry     beta= 0.40
     Davidson diagonalization with overlap
     ethr =  1.16E-06,  avg # of iterations =  2.0

     negative rho (up, down):  2.221E-02 0.000E+00

     total cpu time spent up to now is    13899.9 secs

     total energy              =   -4513.44126725 Ry
     estimated scf accuracy    <       0.00825482 Ry

     iteration # 14     ecut=    45.00 Ry     beta= 0.40
     Davidson diagonalization with overlap
     ethr =  1.16E-06,  avg # of iterations =  2.0

     negative rho (up, down):  2.257E-02 0.000E+00

     total cpu time spent up to now is    14231.3 secs

     total energy              =   -4513.44170348 Ry
     estimated scf accuracy    <       0.00243519 Ry

     iteration # 15     ecut=    45.00 Ry     beta= 0.40
     Davidson diagonalization with overlap
     ethr =  9.22E-07,  avg # of iterations =  2.0

     negative rho (up, down):  2.265E-02 0.000E+00

     total cpu time spent up to now is    14552.3 secs

     total energy              =   -4513.44201394 Ry
     estimated scf accuracy    <       0.00066199 Ry

     iteration # 16     ecut=    45.00 Ry     beta= 0.40
     Davidson diagonalization with overlap
     ethr =  2.51E-07,  avg # of iterations =  2.0

     negative rho (up, down):  2.285E-02 0.000E+00

     total cpu time spent up to now is    14871.8 secs

     total energy              =   -4513.44206488 Ry
     estimated scf accuracy    <       0.00023715 Ry

     iteration # 17     ecut=    45.00 Ry     beta= 0.40
     Davidson diagonalization with overlap
     ethr =  8.98E-08,  avg # of iterations =  1.8

     negative rho (up, down):  2.292E-02 0.000E+00

     total cpu time spent up to now is    15182.6 secs

     total energy              =   -4513.44207853 Ry
     estimated scf accuracy    <       0.00005632 Ry

     iteration # 18     ecut=    45.00 Ry     beta= 0.40
     Davidson diagonalization with overlap
     ethr =  2.13E-08,  avg # of iterations =  2.0

     negative rho (up, down):  2.309E-02 0.000E+00

     total cpu time spent up to now is    15499.9 secs

     total energy              =   -4513.44208369 Ry
     estimated scf accuracy    <       0.00010171 Ry

     iteration # 19     ecut=    45.00 Ry     beta= 0.40
     Davidson diagonalization with overlap
     ethr =  2.13E-08,  avg # of iterations =  2.0

     negative rho (up, down):  2.315E-02 0.000E+00

     total cpu time spent up to now is    15809.1 secs

     total energy              =   -4513.44208715 Ry
     estimated scf accuracy    <       0.00002501 Ry

     iteration # 20     ecut=    45.00 Ry     beta= 0.40
     Davidson diagonalization with overlap
     ethr =  9.47E-09,  avg # of iterations =  1.6

     negative rho (up, down):  2.321E-02 0.000E+00

     total cpu time spent up to now is    16113.1 secs

     total energy              =   -4513.44208900 Ry
     estimated scf accuracy    <       0.00000203 Ry

     iteration # 21     ecut=    45.00 Ry     beta= 0.40
     Davidson diagonalization with overlap
     ethr =  7.70E-10,  avg # of iterations =  2.0

     negative rho (up, down):  2.324E-02 0.000E+00

     total cpu time spent up to now is    16451.8 secs

     total energy              =   -4513.44208921 Ry
     estimated scf accuracy    <       0.00000518 Ry

     iteration # 22     ecut=    45.00 Ry     beta= 0.40
     Davidson diagonalization with overlap
     ethr =  7.70E-10,  avg # of iterations =  2.0

     negative rho (up, down):  2.326E-02 0.000E+00

     total cpu time spent up to now is    16779.6 secs

     total energy              =   -4513.44208953 Ry
     estimated scf accuracy    <       0.00000012 Ry

     iteration # 23     ecut=    45.00 Ry     beta= 0.40
     Davidson diagonalization with overlap
     ethr =  4.68E-11,  avg # of iterations =  2.0

     negative rho (up, down):  2.327E-02 0.000E+00

     total cpu time spent up to now is    17151.5 secs

     total energy              =   -4513.44208953 Ry
     estimated scf accuracy    <       0.00000039 Ry

     iteration # 24     ecut=    45.00 Ry     beta= 0.40
     Davidson diagonalization with overlap
     ethr =  4.68E-11,  avg # of iterations =  2.0

     negative rho (up, down):  2.327E-02 0.000E+00

     total cpu time spent up to now is    17501.7 secs

     total energy              =   -4513.44208956 Ry
     estimated scf accuracy    <       0.00000008 Ry

     iteration # 25     ecut=    45.00 Ry     beta= 0.40
     Davidson diagonalization with overlap
     ethr =  3.12E-11,  avg # of iterations =  2.0

     negative rho (up, down):  2.328E-02 0.000E+00

     total cpu time spent up to now is    17831.9 secs

     total energy              =   -4513.44208956 Ry
     estimated scf accuracy    <       0.00000009 Ry

     iteration # 26     ecut=    45.00 Ry     beta= 0.40
     Davidson diagonalization with overlap
     ethr =  3.12E-11,  avg # of iterations =  2.0

     negative rho (up, down):  2.328E-02 0.000E+00

     total cpu time spent up to now is    18161.7 secs

     total energy              =   -4513.44208957 Ry
     estimated scf accuracy    <       0.00000003 Ry

     iteration # 27     ecut=    45.00 Ry     beta= 0.40
     Davidson diagonalization with overlap
     ethr =  1.19E-11,  avg # of iterations =  2.0

     negative rho (up, down):  2.329E-02 0.000E+00

     total cpu time spent up to now is    18508.1 secs

     total energy              =   -4513.44208957 Ry
     estimated scf accuracy    <       0.00000002 Ry

     iteration # 28     ecut=    45.00 Ry     beta= 0.40
     Davidson diagonalization with overlap
     ethr =  6.30E-12,  avg # of iterations =  2.0

     negative rho (up, down):  2.329E-02 0.000E+00

     total cpu time spent up to now is    18835.3 secs

     total energy              =   -4513.44208957 Ry
     estimated scf accuracy    <       0.00000002 Ry

     iteration # 29     ecut=    45.00 Ry     beta= 0.40
     Davidson diagonalization with overlap
     ethr =  6.11E-12,  avg # of iterations =  2.0

     negative rho (up, down):  2.329E-02 0.000E+00

     total cpu time spent up to now is    19182.2 secs

     End of self-consistent calculation

          k = 0.0000 0.0000 0.0000 (  6315 PWs)   bands (ev):

  -131.5886-131.5866 -84.9644 -84.9641 -84.9490 -84.9489 -84.7355 -84.7353
   -84.7210 -84.7208 -84.5342 -84.5341 -73.4890 -73.4757 -73.4670 -73.4653
   -70.3657 -70.3503 -45.3818 -45.3788 -45.2678 -45.2592 -45.2330 -45.2311
   -45.1634 -45.1597 -45.1044 -45.0952 -45.0869 -45.0653 -45.0318 -45.0152
   -45.0045 -44.9953 -44.9454 -44.9359 -44.9289 -44.9253 -44.9225 -44.9071
   -44.8953 -44.8883 -44.8160 -44.8137 -44.7367 -44.7276 -44.5765 -44.5687
   -38.5274 -38.5266 -29.6582 -29.6574 -22.3588 -22.3585 -22.3528 -22.3521
   -14.8780 -14.8747 -14.7827 -14.7809 -14.7600 -14.7527  -6.0768  -6.0490
    -4.5795  -4.5564  -4.5213  -4.4923   0.4059   0.4986   0.5259   0.5347
     3.2624   3.3653  10.4094  12.1289  12.8493  13.9074  14.0046  14.0469
    14.1765  14.2259  14.3572  14.7729  14.8055  14.8363  15.0253  15.0789
    15.0915  15.2006  15.3327  15.4108  15.5808  15.5932  15.7350  15.7889
    15.8058  15.9830  15.9971  16.1315  16.1813  16.2228  16.2362  16.4254
    16.5611  16.6720  16.6825  16.7493  16.7580  16.8445  16.9118  16.9803
    17.0006  17.0952  17.2115  17.2962  17.3488  17.3550  17.4212  17.4728
    17.6356  17.7394  17.9351  17.9799  18.1425  18.1620  18.1798  18.1872
    18.2741  18.3075  18.4550  19.1796  19.3221  19.3762  19.4170  19.5496
    19.8256  19.8545  19.8641  19.9072  19.9473  20.0041  20.2080  20.3238
    20.5449  20.5497  20.5657  20.8404  21.1385  21.6215  22.0030  22.3103
    22.4931  23.0745  23.6418  23.8383  23.9154  24.8282

          k = 0.0000 0.0000 0.1535 (  6219 PWs)   bands (ev):

  -131.5823-131.5821 -84.9641 -84.9640 -84.9489 -84.9487 -84.7353 -84.7352
   -84.7208 -84.7207 -84.5341 -84.5339 -73.4680 -73.4584 -73.4437 -73.4419
   -70.3431 -70.3376 -45.3640 -45.3524 -45.2436 -45.2415 -45.2143 -45.2062
   -45.1406 -45.1367 -45.0848 -45.0751 -45.0511 -45.0456 -45.0026 -44.9915
   -44.9837 -44.9754 -44.9238 -44.9142 -44.9112 -44.8975 -44.8965 -44.8791
   -44.8700 -44.8679 -44.7934 -44.7930 -44.7144 -44.7062 -44.5590 -44.5418
   -38.5273 -38.5267 -29.6488 -29.6458 -22.3536 -22.3535 -22.3486 -22.3470
   -14.8773 -14.8749 -14.7821 -14.7810 -14.7588 -14.7535  -6.0596  -6.0418
    -4.5684  -4.5534  -4.5034  -4.4844   0.4271   0.5038   0.5200   0.5260
     3.2893   3.3628  10.5587  11.6008  13.3849  13.9907  14.0606  14.0983
    14.1666  14.2430  14.3926  14.7384  14.7760  14.8105  14.8542  15.0469
    15.1084  15.1559  15.2848  15.3010  15.3737  15.5089  15.7246  15.7647
    16.0384  16.0434  16.1389  16.2346  16.2754  16.3345  16.4339  16.5938
    16.6570  16.7391  16.7514  16.7623  16.8264  16.8405  16.8708  17.0325
    17.0776  17.1108  17.2014  17.3178  17.3257  17.3421  17.3783  17.4205
    17.6514  17.6644  17.7760  17.7849  17.9361  18.0105  18.1104  18.1862
    18.2241  18.4691  18.7518  18.9537  19.2765  19.3941  19.4458  19.5802
    19.6281  19.7940  19.8207  19.8981  20.0057  20.0084  20.1857  20.2451
    20.4082  20.8037  20.9023  21.0128  21.1235  21.7838  21.8204  22.3549
    22.4859  23.0218  23.5878  23.8206  24.2767  25.3198

          k = 0.0000 0.0000-0.3069 (  6238 PWs)   bands (ev):

  -131.5839-131.5839 -84.9641 -84.9641 -84.9489 -84.9489 -84.7353 -84.7353
   -84.7208 -84.7208 -84.5341 -84.5341 -73.4562 -73.4562 -73.4480 -73.4480
   -70.3469 -70.3469 -45.3562 -45.3562 -45.2476 -45.2476 -45.2191 -45.2191
   -45.1465 -45.1465 -45.0859 -45.0859 -45.0588 -45.0588 -45.0092 -45.0092
   -44.9870 -44.9870 -44.9181 -44.9181 -44.9108 -44.9108 -44.8814 -44.8814
   -44.8785 -44.8785 -44.8039 -44.8039 -44.7178 -44.7178 -44.5481 -44.5481
   -38.5270 -38.5270 -29.6544 -29.6544 -22.3536 -22.3536 -22.3507 -22.3507
   -14.8761 -14.8761 -14.7817 -14.7817 -14.7562 -14.7562  -6.0489  -6.0489
    -4.5553  -4.5553  -4.4987  -4.4987   0.4722   0.4722   0.5155   0.5155
     3.3215   3.3215  10.9689  10.9689  13.9163  13.9163  14.1366  14.1366
    14.2061  14.2061  14.4802  14.4802  14.6953  14.6953  14.9070  14.9070
    15.1329  15.1329  15.2157  15.2157  15.3678  15.3678  15.6534  15.6534
    16.1817  16.1817  16.2756  16.2756  16.4489  16.4489  16.5670  16.5670
    16.6755  16.6755  16.8005  16.8005  16.9648  16.9648  17.0827  17.0827
    17.1541  17.1541  17.2885  17.2885  17.3141  17.3141  17.3405  17.3405
    17.4142  17.4142  17.6316  17.6316  17.7434  17.7434  18.1824  18.1824
    18.2897  18.2897  18.9600  18.9600  19.1830  19.1830  19.5055  19.5055
    19.6847  19.6847  19.9516  19.9516  20.0018  20.0018  20.0903  20.0903
    20.6975  20.6975  21.1945  21.1945  21.2582  21.2582  22.1713  22.1713
    22.7116  22.7116  23.7289  23.7289  24.9942  24.9942

          k = 0.0000 0.1925 0.0000 (  6253 PWs)   bands (ev):

  -131.5844-131.5828 -84.9638 -84.9637 -84.9493 -84.9492 -84.7350 -84.7349
   -84.7212 -84.7211 -84.5342 -84.5340 -73.4778 -73.4644 -73.4515 -73.4503
   -70.3498 -70.3421 -45.3715 -45.3588 -45.2539 -45.2496 -45.2223 -45.2081
   -45.1505 -45.1467 -45.0863 -45.0764 -45.0631 -45.0535 -45.0109 -45.0106
   -45.0070 -44.9795 -44.9360 -44.9281 -44.9080 -44.9047 -44.8987 -44.8833
   -44.8832 -44.8787 -44.8063 -44.7998 -44.7194 -44.7193 -44.5664 -44.5529
   -38.5269 -38.5261 -29.6526 -29.6475 -22.3577 -22.3543 -22.3506 -22.3485
   -14.8786 -14.8753 -14.7845 -14.7828 -14.7604 -14.7529  -6.0638  -6.0439
    -4.5731  -4.5511  -4.5102  -4.4866   0.4173   0.4907   0.5157   0.5293
     3.2619   3.3564  10.6651  12.3276  13.0428  13.8787  14.0975  14.1006
    14.2935  14.3081  14.4259  14.7522  14.8755  14.8809  15.0912  15.1023
    15.2466  15.2840  15.4181  15.4284  15.5222  15.5971  15.6692  15.7787
    15.8113  15.9706  15.9987  16.1254  16.1762  16.2028  16.2906  16.3203
    16.5235  16.6496  16.6815  16.7479  16.7740  16.8613  16.9197  16.9436
    16.9769  17.0459  17.0509  17.1920  17.2670  17.3185  17.3996  17.4635
    17.4951  17.5459  17.6391  17.7181  17.8497  17.8875  17.9160  18.1088
    18.1964  18.3744  18.4454  18.5468  19.0278  19.1942  19.3452  19.5025
    19.6724  19.8516  19.9089  19.9478  20.1135  20.1242  20.2073  20.3989
    20.4341  20.7375  20.7876  21.0041  21.2608  21.6425  21.9847  22.5351
    23.0508  23.6558  23.9893  24.2536  24.4939  24.8976

          k = 0.0000 0.1925 0.1535 (  6246 PWs)   bands (ev):

  -131.5839-131.5829 -84.9638 -84.9636 -84.9492 -84.9492 -84.7350 -84.7349
   -84.7212 -84.7211 -84.5341 -84.5340 -73.4702 -73.4588 -73.4542 -73.4521
   -70.3465 -70.3437 -45.3599 -45.3586 -45.2504 -45.2479 -45.2172 -45.2161
   -45.1505 -45.1491 -45.0816 -45.0802 -45.0661 -45.0519 -45.0152 -45.0123
   -44.9940 -44.9855 -44.9266 -44.9219 -44.9098 -44.9016 -44.8997 -44.8879
   -44.8768 -44.8684 -44.8060 -44.7992 -44.7196 -44.7168 -44.5562 -44.5545
   -38.5268 -38.5263 -29.6520 -29.6479 -22.3564 -22.3530 -22.3502 -22.3486
   -14.8781 -14.8758 -14.7843 -14.7830 -14.7592 -14.7540  -6.0612  -6.0449
    -4.5674  -4.5526  -4.5086  -4.4896   0.4340   0.4934   0.5081   0.5184
     3.2747   3.3447  10.8041  11.8172  13.5566  13.9413  14.0923  14.1763
    14.2712  14.3043  14.4511  14.6975  14.8567  14.8768  14.9636  15.0818
    15.1729  15.2081  15.3135  15.3458  15.4128  15.5162  15.7100  15.7227
    15.9279  16.0598  16.1339  16.2149  16.3043  16.3384  16.3572  16.5027
    16.5675  16.6539  16.6869  16.7479  16.7912  16.8160  16.9345  16.9684
    17.0230  17.0628  17.0767  17.1811  17.2231  17.2928  17.3709  17.4041
    17.4543  17.4727  17.6934  17.7117  17.7632  17.8327  17.9241  18.0075
    18.0591  18.1615  18.2826  18.8255  19.0389  19.1994  19.3067  19.5440
    19.6921  19.8088  19.8686  19.9229  20.0182  20.1381  20.1691  20.3025
    20.4482  20.5482  20.8896  21.3107  21.4308  21.9142  22.0377  22.3274
    23.0078  23.5345  24.0545  24.4240  24.4681  25.4279

          k = 0.0000 0.1925-0.3069 (  6226 PWs)   bands (ev):

  -131.5817-131.5817 -84.9637 -84.9637 -84.9492 -84.9492 -84.7349 -84.7349
   -84.7211 -84.7211 -84.5341 -84.5341 -73.4565 -73.4565 -73.4490 -73.4490
   -70.3428 -70.3428 -45.3541 -45.3541 -45.2445 -45.2445 -45.2148 -45.2148
   -45.1449 -45.1449 -45.0818 -45.0818 -45.0559 -45.0559 -45.0095 -45.0095
   -44.9873 -44.9873 -44.9139 -44.9139 -44.9038 -44.9038 -44.8825 -44.8825
   -44.8710 -44.8710 -44.8010 -44.8010 -44.7120 -44.7120 -44.5480 -44.5480
   -38.5265 -38.5265 -29.6491 -29.6491 -22.3536 -22.3536 -22.3490 -22.3490
   -14.8769 -14.8769 -14.7836 -14.7836 -14.7566 -14.7566  -6.0491  -6.0491
    -4.5583  -4.5583  -4.4951  -4.4951   0.4709   0.4709   0.5062   0.5062
     3.3109   3.3109  11.2084  11.2084  14.0485  14.0485  14.1149  14.1149
    14.2415  14.2415  14.5929  14.5929  14.7491  14.7491  14.9921  14.9921
    15.1798  15.1798  15.2589  15.2589  15.4234  15.4234  15.6511  15.6511
    16.1426  16.1426  16.2623  16.2623  16.4323  16.4323  16.4913  16.4913
    16.6290  16.6290  16.7097  16.7097  16.8581  16.8581  17.0088  17.0088
    17.0676  17.0676  17.1615  17.1615  17.2312  17.2312  17.3328  17.3328
    17.4319  17.4319  17.6076  17.6076  17.7001  17.7001  17.8809  17.8809
    18.0273  18.0273  18.5008  18.5008  19.1289  19.1289  19.5951  19.5951
    19.6679  19.6679  19.9261  19.9261  19.9982  19.9982  20.1817  20.1817
    20.5016  20.5016  21.2848  21.2848  21.5365  21.5365  22.4353  22.4353
    23.1403  23.1403  24.2508  24.2508  24.8786  24.8786

          k = 0.0000 0.3849 0.0000 (  6250 PWs)   bands (ev):

  -131.5843-131.5829 -84.9630 -84.9628 -84.9501 -84.9501 -84.7342 -84.7341
   -84.7221 -84.7219 -84.5342 -84.5340 -73.4723 -73.4654 -73.4579 -73.4456
   -70.3505 -70.3497 -45.3592 -45.3586 -45.2532 -45.2509 -45.2224 -45.2142
   -45.1516 -45.1476 -45.0813 -45.0788 -45.0697 -45.0439 -45.0249 -45.0064
   -45.0055 -44.9866 -44.9367 -44.9285 -44.9068 -44.9009 -44.8973 -44.8873
   -44.8822 -44.8612 -44.8223 -44.8121 -44.7216 -44.7188 -44.5594 -44.5579
   -38.5259 -38.5252 -29.6553 -29.6519 -22.3576 -22.3522 -22.3507 -22.3483
   -14.8802 -14.8769 -14.7886 -14.7868 -14.7611 -14.7538  -6.0604  -6.0442
    -4.5692  -4.5484  -4.5080  -4.4871   0.4422   0.4729   0.4876   0.5093
     3.2444   3.3196  11.3665  12.8761  13.3683  13.5476  14.1362  14.2046
    14.5202  14.5417  14.5783  14.7449  15.0298  15.1585  15.2163  15.2911
    15.3439  15.3802  15.4646  15.5131  15.6065  15.6532  15.6598  15.7109
    15.7110  15.8702  15.9786  16.0276  16.0774  16.0818  16.2072  16.3208
    16.4191  16.4258  16.5100  16.5188  16.6803  16.7697  16.7900  16.8611
    16.9002  16.9743  17.0068  17.0318  17.1072  17.1238  17.1664  17.1726
    17.2880  17.3906  17.5166  17.5307  17.5447  17.5739  17.6032  17.6458
    17.8124  18.0914  18.1210  18.2182  18.9859  19.1622  19.1768  19.2546
    19.6680  19.7176  19.7283  19.9109  19.9827  19.9829  20.2605  20.2714
    20.4351  20.6435  20.8137  21.5597  21.8307  21.9144  22.2537  23.6030
    23.6321  24.1810  24.6990  25.1713  25.4741  25.8954

          k = 0.0000 0.3849 0.1535 (  6249 PWs)   bands (ev):

  -131.5839-131.5834 -84.9630 -84.9628 -84.9501 -84.9501 -84.7342 -84.7341
   -84.7220 -84.7219 -84.5342 -84.5341 -73.4712 -73.4610 -73.4545 -73.4485
   -70.3480 -70.3478 -45.3581 -45.3555 -45.2515 -45.2486 -45.2204 -45.2163
   -45.1516 -45.1483 -45.0792 -45.0748 -45.0611 -45.0481 -45.0205 -45.0116
   -45.0077 -44.9933 -44.9313 -44.9255 -44.9044 -44.8949 -44.8931 -44.8851
   -44.8826 -44.8708 -44.8227 -44.8196 -44.7234 -44.7207 -44.5600 -44.5567
   -38.5258 -38.5253 -29.6537 -29.6515 -22.3565 -22.3542 -22.3510 -22.3487
   -14.8797 -14.8774 -14.7883 -14.7870 -14.7600 -14.7549  -6.0561  -6.0459
    -4.5648  -4.5505  -4.5038  -4.4919   0.4491   0.4770   0.4823   0.5044
     3.2563   3.3104  11.4911  12.4100  13.4531  13.8639  14.0443  14.3634
    14.4753  14.6025  14.6380  14.7752  15.0367  15.0908  15.1640  15.2193
    15.2648  15.3322  15.4372  15.4446  15.5704  15.5905  15.6641  15.7433
    15.8431  15.9456  15.9798  16.0784  16.0904  16.1767  16.2929  16.3238
    16.4331  16.4460  16.4947  16.5200  16.6665  16.7632  16.8252  16.8854
    16.9275  16.9491  16.9796  17.0159  17.0268  17.0929  17.1369  17.2225
    17.3378  17.4095  17.4549  17.5030  17.5319  17.6055  17.6278  17.6942
    17.7436  17.8572  18.0733  18.3830  18.9049  19.1328  19.1990  19.2884
    19.6130  19.6636  19.7646  19.7835  19.9046  20.0523  20.1764  20.2640
    20.3008  20.7771  21.0913  21.4933  21.8753  22.2905  22.4066  22.8857
    23.7371  24.2101  24.7416  25.2277  25.2680  25.8659

          k = 0.0000 0.3849-0.3069 (  6240 PWs)   bands (ev):

  -131.5831-131.5831 -84.9629 -84.9629 -84.9501 -84.9501 -84.7341 -84.7341
   -84.7220 -84.7220 -84.5341 -84.5341 -73.4564 -73.4564 -73.4514 -73.4514
   -70.3458 -70.3458 -45.3519 -45.3519 -45.2470 -45.2470 -45.2175 -45.2175
   -45.1497 -45.1497 -45.0792 -45.0792 -45.0528 -45.0528 -45.0121 -45.0121
   -45.0015 -45.0015 -44.9192 -44.9192 -44.9010 -44.9010 -44.8851 -44.8851
   -44.8730 -44.8730 -44.8191 -44.8191 -44.7197 -44.7197 -44.5520 -44.5520
   -38.5256 -38.5256 -29.6524 -29.6524 -22.3548 -22.3548 -22.3499 -22.3499
   -14.8785 -14.8785 -14.7877 -14.7877 -14.7574 -14.7574  -6.0472  -6.0472
    -4.5549  -4.5549  -4.4953  -4.4953   0.4647   0.4647   0.4926   0.4926
     3.2842   3.2842  11.8587  11.8587  13.6388  13.6388  14.4272  14.4272
    14.4995  14.4995  14.8501  14.8501  14.8963  14.8963  15.1351  15.1351
    15.3092  15.3092  15.3867  15.3867  15.5705  15.5705  15.6840  15.6840
    15.9647  15.9647  16.0550  16.0550  16.2182  16.2182  16.3208  16.3208
    16.4060  16.4060  16.5478  16.5478  16.7371  16.7371  16.8895  16.8895
    16.9031  16.9031  16.9819  16.9819  17.0904  17.0904  17.1498  17.1498
    17.3923  17.3923  17.4438  17.4438  17.5387  17.5387  17.6476  17.6476
    17.8017  17.8017  18.1448  18.1448  19.0519  19.0519  19.2552  19.2552
    19.5746  19.5746  19.7974  19.7974  19.8776  19.8776  20.2295  20.2295
    20.4997  20.4997  21.4858  21.4858  22.0117  22.0117  23.0006  23.0006
    23.5283  23.5283  24.8724  24.8724  25.4909  25.4909

          k = 0.0000-0.5774 0.0000 (  6248 PWs)   bands (ev):

  -131.5852-131.5829 -84.9624 -84.9624 -84.9506 -84.9505 -84.7337 -84.7337
   -84.7225 -84.7224 -84.5343 -84.5340 -73.4713 -73.4580 -73.4555 -73.4452
   -70.3572 -70.3486 -45.3539 -45.3497 -45.2531 -45.2497 -45.2320 -45.2098
   -45.1674 -45.1336 -45.0858 -45.0790 -45.0679 -45.0336 -45.0230 -45.0072
   -44.9995 -44.9969 -44.9492 -44.9216 -44.8987 -44.8887 -44.8839 -44.8813
   -44.8781 -44.8691 -44.8314 -44.8308 -44.7372 -44.7073 -44.5573 -44.5527
   -38.5254 -38.5247 -29.6606 -29.6537 -22.3538 -22.3523 -22.3512 -22.3502
   -14.8809 -14.8778 -14.7906 -14.7889 -14.7615 -14.7541  -6.0547  -6.0465
    -4.5669  -4.5462  -4.5014  -4.4900   0.4658   0.4677   0.4707   0.4895
     3.2345   3.3028  12.3426  12.4058  13.4890  13.7582  13.9276  14.1912
    14.6211  14.6251  14.8475  15.0156  15.0531  15.0799  15.2633  15.3514
    15.4058  15.4537  15.5563  15.6060  15.6620  15.6678  15.7238  15.7779
    15.7848  15.8376  15.8438  15.8532  15.9731  16.0603  16.1671  16.1808
    16.2760  16.4397  16.4517  16.4533  16.5387  16.5921  16.6153  16.7350
    16.8844  16.9157  16.9258  16.9571  17.0199  17.0277  17.0604  17.1632
    17.2026  17.2510  17.3425  17.3673  17.4393  17.4966  17.5663  17.6196
    17.6567  17.8936  18.0125  18.2188  18.9415  19.0682  19.1689  19.1929
    19.5196  19.6011  19.7885  19.8163  19.9225  20.1178  20.1346  20.2769
    20.5261  20.5766  20.7662  21.8539  21.8559  21.9833  22.5935  23.5486
    24.3773  24.9021  25.1085  25.4959  26.1790  26.4516

          k = 0.0000-0.5774 0.1535 (  6254 PWs)   bands (ev):

  -131.5844-131.5843 -84.9625 -84.9623 -84.9506 -84.9505 -84.7338 -84.7337
   -84.7225 -84.7224 -84.5342 -84.5341 -73.4678 -73.4553 -73.4552 -73.4527
   -70.3535 -70.3516 -45.3534 -45.3496 -45.2530 -45.2518 -45.2258 -45.2186
   -45.1571 -45.1425 -45.0847 -45.0811 -45.0642 -45.0324 -45.0237 -45.0175
   -45.0096 -45.0055 -44.9308 -44.9285 -44.9050 -44.8941 -44.8854 -44.8841
   -44.8831 -44.8737 -44.8363 -44.8274 -44.7274 -44.7188 -44.5591 -44.5553
   -38.5253 -38.5248 -29.6577 -29.6564 -22.3561 -22.3536 -22.3503 -22.3502
   -14.8805 -14.8783 -14.7904 -14.7891 -14.7604 -14.7553  -6.0519  -6.0478
    -4.5612  -4.5498  -4.5003  -4.4942   0.4580   0.4645   0.4786   0.4910
     3.2456   3.2916  12.4504  12.4980  13.1816  13.2628  14.3776  14.4884
    14.6418  14.6604  14.8559  14.9649  15.0762  15.0960  15.2648  15.2826
    15.3603  15.4414  15.5243  15.5685  15.5851  15.6152  15.6869  15.7383
    15.7802  15.8344  15.8859  15.9223  16.0040  16.0996  16.1652  16.2655
    16.2936  16.3167  16.4055  16.4678  16.5369  16.6257  16.7274  16.7803
    16.8476  16.8484  16.8996  16.9235  17.0301  17.0412  17.0647  17.1531
    17.2116  17.2641  17.4077  17.4099  17.4802  17.5286  17.5575  17.6370
    17.6402  17.8234  18.0809  18.0969  18.9862  19.0410  19.0833  19.2340
    19.4904  19.5307  19.7215  19.8076  19.8173  20.0891  20.1530  20.2395
    20.2498  20.9384  21.2263  21.3047  21.9251  22.6194  22.6850  22.8993
    24.3309  24.7907  25.0795  25.2914  25.8164  26.2132

          k = 0.0000-0.5774-0.3069 (  6272 PWs)   bands (ev):

  -131.5851-131.5851 -84.9624 -84.9624 -84.9506 -84.9506 -84.7338 -84.7338
   -84.7225 -84.7225 -84.5342 -84.5342 -73.4663 -73.4663 -73.4528 -73.4528
   -70.3554 -70.3554 -45.3582 -45.3582 -45.2583 -45.2583 -45.2241 -45.2241
   -45.1502 -45.1502 -45.0846 -45.0846 -45.0497 -45.0497 -45.0247 -45.0247
   -45.0130 -45.0130 -44.9303 -44.9303 -44.9011 -44.9011 -44.8961 -44.8961
   -44.8897 -44.8897 -44.8343 -44.8343 -44.7259 -44.7259 -44.5642 -44.5642
   -38.5251 -38.5251 -29.6594 -29.6594 -22.3580 -22.3580 -22.3510 -22.3510
   -14.8794 -14.8794 -14.7898 -14.7898 -14.7579 -14.7579  -6.0495  -6.0495
    -4.5570  -4.5570  -4.4963  -4.4963   0.4568   0.4568   0.4880   0.4880
     3.2664   3.2664  12.7322  12.7322  12.8131  12.8131  14.5635  14.5635
    14.8675  14.8675  14.9019  14.9019  15.0241  15.0241  15.2373  15.2373
    15.3548  15.3548  15.5189  15.5189  15.5468  15.5468  15.6863  15.6863
    15.8196  15.8196  15.9639  15.9639  16.0541  16.0541  16.1741  16.1741
    16.3500  16.3500  16.4485  16.4485  16.5601  16.5601  16.7654  16.7654
    16.8476  16.8476  16.9200  16.9200  17.0538  17.0538  17.0942  17.0942
    17.1617  17.1617  17.4777  17.4777  17.5032  17.5032  17.5488  17.5488
    17.7814  17.7814  18.0968  18.0968  18.9166  18.9166  19.1788  19.1788
    19.4527  19.4527  19.7480  19.7480  19.8356  19.8356  20.2295  20.2295
    20.4981  20.4981  21.7667  21.7667  21.8669  21.8669  23.3567  23.3567
    23.6839  23.6839  25.4116  25.4116  25.9769  25.9769

          k = 0.1667 0.2887 0.0000 (  6240 PWs)   bands (ev):

  -131.5840-131.5822 -84.9629 -84.9628 -84.9501 -84.9501 -84.7350 -84.7349
   -84.7212 -84.7211 -84.5342 -84.5340 -73.4716 -73.4620 -73.4568 -73.4439
   -70.3478 -70.3382 -45.3646 -45.3527 -45.2537 -45.2473 -45.2136 -45.2109
   -45.1474 -45.1468 -45.0844 -45.0794 -45.0678 -45.0451 -45.0302 -45.0074
   -45.0027 -44.9852 -44.9465 -44.9111 -44.9060 -44.9025 -44.8993 -44.8886
   -44.8769 -44.8663 -44.7988 -44.7946 -44.7174 -44.7108 -44.5615 -44.5501
   -38.5262 -38.5254 -29.6528 -29.6420 -22.3587 -22.3521 -22.3500 -22.3475
   -14.8809 -14.8778 -14.7858 -14.7840 -14.7616 -14.7540  -6.0574  -6.0402
    -4.5681  -4.5448  -4.5057  -4.4890   0.4288   0.4591   0.4750   0.5183
     3.2612   3.3408  11.1036  12.7319  13.2495  13.7390  14.1237  14.1338
    14.3092  14.5378  14.5417  14.8691  14.9711  14.9728  15.1897  15.2622
    15.3737  15.3878  15.5025  15.5158  15.5438  15.5706  15.5871  15.6332
    15.6995  15.9378  15.9928  16.0544  16.1205  16.1359  16.2935  16.3751
    16.4471  16.4650  16.6138  16.6832  16.6870  16.8440  16.8578  16.8722
    17.0045  17.0543  17.0642  17.1151  17.1242  17.1635  17.1897  17.2347
    17.3775  17.3927  17.5135  17.6190  17.7109  17.7414  17.8466  17.8534
    18.0642  18.0838  18.0945  18.4343  18.8852  19.0840  19.3262  19.3283
    19.7324  19.7839  19.8043  19.8469  19.8986  19.9082  19.9973  20.2804
    20.3709  20.7595  20.9034  21.1357  21.6067  22.2248  22.4436  22.7074
    23.4550  23.5792  24.1396  24.9681  24.9773  25.7016

          k = 0.1667 0.2887 0.1535 (  6242 PWs)   bands (ev):

  -131.5836-131.5825 -84.9629 -84.9628 -84.9501 -84.9501 -84.7350 -84.7349
   -84.7212 -84.7211 -84.5342 -84.5340 -73.4715 -73.4620 -73.4518 -73.4472
   -70.3463 -70.3434 -45.3602 -45.3511 -45.2527 -45.2443 -45.2147 -45.2132
   -45.1516 -45.1499 -45.0836 -45.0775 -45.0639 -45.0491 -45.0257 -45.0140
   -45.0087 -44.9885 -44.9392 -44.9153 -44.9063 -44.9024 -44.8936 -44.8888
   -44.8773 -44.8647 -44.8036 -44.7986 -44.7166 -44.7158 -44.5552 -44.5524
   -38.5261 -38.5255 -29.6522 -29.6454 -22.3561 -22.3532 -22.3500 -22.3486
   -14.8804 -14.8782 -14.7855 -14.7843 -14.7605 -14.7552  -6.0537  -6.0439
    -4.5636  -4.5486  -4.5021  -4.4920   0.4355   0.4633   0.4725   0.5093
     3.2735   3.3261  11.2394  12.2111  13.6672  13.8515  14.0169  14.2406
    14.3664  14.4572  14.6146  14.8499  14.9115  15.0046  15.1360  15.2023
    15.2466  15.3433  15.4145  15.4523  15.5059  15.5604  15.6244  15.7523
    15.7761  15.9650  16.0219  16.1188  16.1747  16.2279  16.3114  16.4240
    16.4499  16.4593  16.5241  16.6506  16.7069  16.8326  16.8892  16.9265
    17.0004  17.0346  17.0537  17.0967  17.1370  17.1998  17.2377  17.3078
    17.3573  17.3944  17.5162  17.5967  17.6679  17.7310  17.7966  17.8568
    17.8831  17.9941  18.1379  18.4416  18.9378  19.0256  19.2678  19.3752
    19.6012  19.7083  19.7827  19.8372  19.8951  19.9888  20.0652  20.1494
    20.4105  20.5346  21.0083  21.6394  21.6778  22.2506  22.4891  22.5499
    22.9262  23.9701  24.2445  24.6336  25.0977  25.7678

          k = 0.1667 0.2887-0.3069 (  6252 PWs)   bands (ev):

  -131.5836-131.5836 -84.9629 -84.9629 -84.9501 -84.9501 -84.7350 -84.7350
   -84.7212 -84.7212 -84.5341 -84.5341 -73.4650 -73.4650 -73.4538 -73.4538
   -70.3458 -70.3458 -45.3573 -45.3573 -45.2509 -45.2509 -45.2142 -45.2142
   -45.1521 -45.1521 -45.0817 -45.0817 -45.0569 -45.0569 -45.0180 -45.0180
   -45.0071 -45.0071 -44.9277 -44.9277 -44.9074 -44.9074 -44.8919 -44.8919
   -44.8814 -44.8814 -44.8032 -44.8032 -44.7176 -44.7176 -44.5547 -44.5547
   -38.5258 -38.5258 -29.6496 -29.6496 -22.3553 -22.3553 -22.3499 -22.3499
   -14.8793 -14.8793 -14.7849 -14.7849 -14.7578 -14.7578  -6.0491  -6.0491
    -4.5551  -4.5551  -4.4987  -4.4987   0.4503   0.4503   0.4895   0.4895
     3.2991   3.2991  11.6242  11.6242  13.8394  13.8394  14.2437  14.2437
    14.4167  14.4167  14.7324  14.7324  14.9152  14.9152  15.0924  15.0924
    15.2640  15.2640  15.3959  15.3959  15.5205  15.5205  15.6582  15.6582
    15.9621  15.9621  16.1231  16.1231  16.2311  16.2311  16.3824  16.3824
    16.4886  16.4886  16.5580  16.5580  16.7727  16.7727  16.9425  16.9425
    17.0072  17.0072  17.0797  17.0797  17.1539  17.1539  17.2982  17.2982
    17.4244  17.4244  17.5087  17.5087  17.6429  17.6429  17.7419  17.7419
    18.0510  18.0510  18.1189  18.1189  19.0309  19.0309  19.3230  19.3230
    19.5440  19.5440  19.8145  19.8145  19.9718  19.9718  20.1290  20.1290
    20.3612  20.3612  21.4274  21.4274  22.0568  22.0568  22.6554  22.6554
    23.1226  23.1226  24.4397  24.4397  25.4929  25.4929

          k = 0.1667 0.4811 0.0000 (  6247 PWs)   bands (ev):

  -131.5843-131.5836 -84.9625 -84.9623 -84.9506 -84.9505 -84.7342 -84.7341
   -84.7220 -84.7220 -84.5342 -84.5341 -73.4759 -73.4584 -73.4508 -73.4506
   -70.3536 -70.3481 -45.3537 -45.3498 -45.2518 -45.2474 -45.2245 -45.2145
   -45.1550 -45.1495 -45.0865 -45.0735 -45.0733 -45.0314 -45.0276 -45.0169
   -44.9988 -44.9961 -44.9496 -44.9204 -44.9065 -44.8948 -44.8872 -44.8851
   -44.8790 -44.8671 -44.8239 -44.8205 -44.7290 -44.7184 -44.5573 -44.5559
   -38.5254 -38.5247 -29.6570 -29.6517 -22.3569 -22.3519 -22.3503 -22.3488
   -14.8817 -14.8786 -14.7895 -14.7875 -14.7620 -14.7545  -6.0531  -6.0474
    -4.5641  -4.5468  -4.5012  -4.4942   0.4537   0.4547   0.4593   0.4977
     3.2466   3.3045  11.9515  13.0156  13.3910  13.6551  13.9780  14.2151
    14.3601  14.7283  14.7362  14.9350  15.1261  15.1545  15.2591  15.3870
    15.4499  15.4713  15.5080  15.5591  15.6153  15.6343  15.6736  15.7511
    15.7559  15.7832  15.8768  15.9458  15.9994  16.0492  16.1542  16.1641
    16.2139  16.3016  16.4682  16.5086  16.6065  16.6371  16.7054  16.8339
    16.8667  16.9572  16.9830  16.9850  17.0601  17.0790  17.1124  17.1515
    17.1949  17.2604  17.4214  17.4243  17.5086  17.5228  17.6324  17.6943
    17.7644  17.8834  17.8838  18.0997  18.7330  18.9714  19.2498  19.2807
    19.5984  19.6335  19.7154  19.8200  19.8433  20.0590  20.1225  20.3075
    20.3592  20.7490  20.8288  21.4775  21.9660  22.1803  23.4494  23.5967
    23.6938  24.6202  24.7231  25.0011  25.1878  26.0069

          k = 0.1667 0.4811 0.1535 (  6255 PWs)   bands (ev):

  -131.5849-131.5835 -84.9625 -84.9623 -84.9506 -84.9506 -84.7342 -84.7341
   -84.7220 -84.7220 -84.5342 -84.5341 -73.4698 -73.4651 -73.4532 -73.4511
   -70.3528 -70.3497 -45.3571 -45.3524 -45.2555 -45.2511 -45.2229 -45.2184
   -45.1513 -45.1497 -45.0841 -45.0760 -45.0583 -45.0370 -45.0317 -45.0209
   -45.0101 -45.0071 -44.9433 -44.9239 -44.9055 -44.8990 -44.8937 -44.8868
   -44.8823 -44.8727 -44.8234 -44.8193 -44.7260 -44.7239 -44.5599 -44.5579
   -38.5253 -38.5248 -29.6553 -29.6542 -22.3560 -22.3543 -22.3505 -22.3494
   -14.8813 -14.8791 -14.7892 -14.7878 -14.7609 -14.7556  -6.0512  -6.0474
    -4.5617  -4.5489  -4.4993  -4.4947   0.4448   0.4534   0.4711   0.4954
     3.2538   3.2963  12.0687  12.8912  13.1291  13.6335  14.0876  14.3346
    14.5071  14.6490  14.9253  14.9539  15.0313  15.1924  15.2692  15.3208
    15.3957  15.4547  15.4660  15.5702  15.5925  15.6344  15.6745  15.6802
    15.7427  15.8471  15.8933  15.9211  16.0040  16.0995  16.1392  16.1656
    16.2712  16.3135  16.4022  16.5422  16.5656  16.6536  16.7605  16.8427
    16.8774  16.8914  16.9028  16.9754  17.0540  17.0954  17.1554  17.1816
    17.2121  17.2731  17.3990  17.4633  17.4707  17.5895  17.6246  17.6697
    17.7157  17.8379  17.9767  18.0173  18.8270  18.9794  19.1906  19.2437
    19.5220  19.5745  19.7198  19.7963  19.9173  20.0586  20.1282  20.1553
    20.4058  20.6950  21.2449  21.4241  22.0558  22.2641  22.8294  23.4929
    23.6906  24.2617  24.8028  24.9123  25.7055  25.8866

          k = 0.1667 0.4811-0.3069 (  6250 PWs)   bands (ev):

  -131.5839-131.5839 -84.9624 -84.9624 -84.9506 -84.9506 -84.7342 -84.7342
   -84.7220 -84.7220 -84.5341 -84.5341 -73.4636 -73.4636 -73.4530 -73.4530
   -70.3517 -70.3517 -45.3532 -45.3532 -45.2525 -45.2525 -45.2180 -45.2180
   -45.1486 -45.1486 -45.0771 -45.0771 -45.0456 -45.0456 -45.0279 -45.0279
   -45.0100 -45.0100 -44.9318 -44.9318 -44.8994 -44.8994 -44.8870 -44.8870
   -44.8813 -44.8813 -44.8195 -44.8195 -44.7228 -44.7228 -44.5570 -44.5570
   -38.5251 -38.5251 -29.6554 -29.6554 -22.3557 -22.3557 -22.3499 -22.3499
   -14.8801 -14.8801 -14.7885 -14.7885 -14.7582 -14.7582  -6.0466  -6.0466
    -4.5521  -4.5521  -4.4958  -4.4958   0.4456   0.4456   0.4867   0.4867
     3.2757   3.2757  12.4039  12.4039  13.3293  13.3293  14.2674  14.2674
    14.7561  14.7561  14.9376  14.9376  15.1302  15.1302  15.2252  15.2252
    15.3799  15.3799  15.5271  15.5271  15.5891  15.5891  15.6750  15.6750
    15.7792  15.7792  15.9659  15.9659  16.0179  16.0179  16.1622  16.1622
    16.3718  16.3718  16.4104  16.4104  16.6149  16.6149  16.7993  16.7993
    16.8974  16.8974  16.9345  16.9345  17.0509  17.0509  17.1447  17.1447
    17.2823  17.2823  17.4398  17.4398  17.5228  17.5228  17.6149  17.6149
    17.7928  17.7928  18.0373  18.0373  18.9155  18.9155  19.1761  19.1761
    19.4759  19.4759  19.7471  19.7471  20.0261  20.0261  20.1678  20.1678
    20.4088  20.4088  21.7323  21.7323  22.1916  22.1916  22.6589  22.6589
    23.8431  23.8431  25.0082  25.0082  25.6723  25.6723

          k = 0.3333 0.5774 0.0000 (  6246 PWs)   bands (ev):

  -131.5846-131.5844 -84.9630 -84.9626 -84.9502 -84.9500 -84.7343 -84.7341
   -84.7220 -84.7220 -84.5342 -84.5342 -73.4714 -73.4648 -73.4517 -73.4435
   -70.3553 -70.3513 -45.3602 -45.3437 -45.2528 -45.2492 -45.2205 -45.2120
   -45.1637 -45.1438 -45.0947 -45.0762 -45.0640 -45.0322 -45.0287 -45.0125
   -45.0015 -44.9793 -44.9564 -44.9277 -44.9035 -44.9005 -44.8928 -44.8852
   -44.8740 -44.8630 -44.8253 -44.8210 -44.7371 -44.7243 -44.5628 -44.5408
   -38.5252 -38.5245 -29.6582 -29.6551 -22.3548 -22.3517 -22.3509 -22.3506
   -14.8826 -14.8795 -14.7900 -14.7879 -14.7623 -14.7549  -6.0551  -6.0422
    -4.5655  -4.5497  -4.5008  -4.4849   0.4440   0.4506   0.4559   0.4988
     3.2426   3.3038  12.6104  12.8223  13.2439  13.6344  14.1291  14.2442
    14.2769  14.6810  14.8231  15.0860  15.1618  15.2345  15.3129  15.3954
    15.4252  15.5068  15.5248  15.5744  15.6200  15.6238  15.6787  15.7700
    15.8243  15.8369  15.9109  15.9406  15.9695  16.0193  16.1120  16.1412
    16.1919  16.3137  16.3543  16.3828  16.3881  16.5496  16.7031  16.7816
    16.8438  16.8959  16.8973  16.9583  17.0265  17.0460  17.0826  17.0976
    17.2193  17.2268  17.3097  17.4170  17.4764  17.5269  17.6317  17.6865
    17.7116  17.7808  17.8386  17.9974  18.4625  18.8966  19.1381  19.4062
    19.5566  19.6280  19.7158  19.7762  19.9841  20.0097  20.0872  20.3068
    20.5179  20.6471  20.8033  21.8723  21.9956  22.3100  23.5973  23.7489
    24.1980  24.3093  24.6102  25.0665  25.2995  25.4046

          k = 0.3333 0.5774 0.1535 (  6267 PWs)   bands (ev):

  -131.5857-131.5847 -84.9630 -84.9627 -84.9502 -84.9501 -84.7343 -84.7341
   -84.7221 -84.7220 -84.5342 -84.5342 -73.4700 -73.4661 -73.4605 -73.4597
   -70.3555 -70.3546 -45.3597 -45.3576 -45.2593 -45.2492 -45.2285 -45.2139
   -45.1673 -45.1485 -45.0965 -45.0852 -45.0625 -45.0453 -45.0278 -45.0174
   -45.0094 -44.9930 -44.9539 -44.9420 -44.9073 -44.8990 -44.8964 -44.8911
   -44.8749 -44.8726 -44.8307 -44.8258 -44.7433 -44.7268 -44.5605 -44.5584
   -38.5251 -38.5246 -29.6581 -29.6551 -22.3565 -22.3543 -22.3517 -22.3510
   -14.8822 -14.8799 -14.7897 -14.7882 -14.7613 -14.7560  -6.0550  -6.0470
    -4.5651  -4.5511  -4.5009  -4.4925   0.4374   0.4457   0.4674   0.4951
     3.2496   3.2949  12.6828  12.8779  13.2555  13.4427  13.8682  14.1250
    14.5094  14.7890  14.9966  15.0999  15.1753  15.2369  15.2817  15.3793
    15.4423  15.4784  15.5034  15.5460  15.5927  15.6741  15.6887  15.7463
    15.8014  15.8277  15.8450  15.9663  15.9873  16.0290  16.0744  16.1854
    16.2573  16.3245  16.3621  16.4046  16.4700  16.5080  16.7092  16.7299
    16.7959  16.7973  16.8821  16.9165  16.9704  17.0299  17.0942  17.1460
    17.2035  17.2151  17.3224  17.3665  17.4478  17.5422  17.6212  17.6885
    17.7049  17.7597  17.9151  17.9462  18.6798  18.9275  19.1146  19.3729
    19.4862  19.5946  19.7138  19.7394  19.9552  20.0622  20.1404  20.2720
    20.5367  20.9052  20.9566  21.6722  22.0702  22.3396  22.9449  23.1757
    23.8339  24.2053  24.5358  24.9310  26.1116  26.1346

          k = 0.3333 0.5774-0.3069 (  6282 PWs)   bands (ev):

  -131.5852-131.5852 -84.9629 -84.9629 -84.9502 -84.9502 -84.7342 -84.7342
   -84.7220 -84.7220 -84.5342 -84.5342 -73.4717 -73.4717 -73.4629 -73.4629
   -70.3539 -70.3539 -45.3633 -45.3633 -45.2590 -45.2590 -45.2232 -45.2232
   -45.1592 -45.1592 -45.0880 -45.0880 -45.0551 -45.0551 -45.0244 -45.0244
   -45.0097 -45.0097 -44.9520 -44.9520 -44.9055 -44.9055 -44.8973 -44.8973
   -44.8801 -44.8801 -44.8280 -44.8280 -44.7367 -44.7367 -44.5659 -44.5659
   -38.5248 -38.5248 -29.6547 -29.6547 -22.3580 -22.3580 -22.3515 -22.3515
   -14.8811 -14.8811 -14.7890 -14.7890 -14.7588 -14.7588  -6.0517  -6.0517
    -4.5563  -4.5563  -4.5013  -4.5013   0.4385   0.4385   0.4833   0.4833
     3.2727   3.2727  12.8556  12.8556  13.2691  13.2691  13.8440  13.8440
    14.7913  14.7913  15.1128  15.1128  15.1979  15.1979  15.3311  15.3311
    15.4388  15.4388  15.5177  15.5177  15.6210  15.6210  15.7096  15.7096
    15.8101  15.8101  15.8967  15.8967  16.0173  16.0173  16.1484  16.1484
    16.3016  16.3016  16.4359  16.4359  16.5219  16.5219  16.6555  16.6555
    16.7886  16.7886  16.8259  16.8259  16.9398  16.9398  17.1311  17.1311
    17.2288  17.2288  17.3536  17.3536  17.4924  17.4924  17.5626  17.5626
    17.8299  17.8299  17.9225  17.9225  18.9232  18.9232  19.1915  19.1915
    19.4901  19.4901  19.7239  19.7239  20.0086  20.0086  20.2211  20.2211
    20.7379  20.7379  21.7117  21.7117  22.1048  22.1048  22.3364  22.3364
    24.0048  24.0048  24.6579  24.6579  26.7215  26.7216

          k =-0.1667 0.0962 0.0000 (  6253 PWs)   bands (ev):

  -131.5848-131.5828 -84.9642 -84.9640 -84.9489 -84.9488 -84.7350 -84.7349
   -84.7213 -84.7211 -84.5342 -84.5340 -73.4766 -73.4648 -73.4545 -73.4456
   -70.3488 -70.3421 -45.3691 -45.3673 -45.2577 -45.2422 -45.2197 -45.2080
   -45.1556 -45.1444 -45.0895 -45.0743 -45.0650 -45.0452 -45.0159 -45.0104
   -44.9879 -44.9806 -44.9422 -44.9273 -44.9142 -44.9043 -44.8996 -44.8881
   -44.8841 -44.8774 -44.8061 -44.7992 -44.7234 -44.7158 -44.5655 -44.5535
   -38.5269 -38.5261 -29.6545 -29.6461 -22.3573 -22.3548 -22.3507 -22.3486
   -14.8787 -14.8754 -14.7845 -14.7828 -14.7603 -14.7529  -6.0663  -6.0414
    -4.5723  -4.5527  -4.5119  -4.4850   0.4158   0.4931   0.5177   0.5312
     3.2603   3.3604  10.6619  12.3220  13.0272  13.9274  14.0942  14.0996
    14.2878  14.3023  14.4308  14.7928  14.8565  14.8871  15.0847  15.1021
    15.1221  15.2637  15.4333  15.4800  15.5174  15.5601  15.7973  15.8257
    15.8708  15.9604  16.0536  16.0742  16.1592  16.1882  16.3053  16.3623
    16.5986  16.6123  16.6675  16.7408  16.7817  16.8413  16.9193  16.9547
    16.9988  17.0088  17.0844  17.1779  17.1924  17.3019  17.4262  17.4371
    17.4528  17.5608  17.6068  17.7894  17.8123  17.8414  17.9539  18.0324
    18.1210  18.3310  18.4689  18.6611  19.0464  19.1710  19.2350  19.4399
    19.5288  19.7854  19.8856  20.0091  20.1177  20.3099  20.3861  20.4953
    20.5319  20.7067  20.7585  20.9621  21.0040  21.3749  21.9245  22.7331
    23.3014  23.6520  23.8545  24.5280  24.6333  24.9667

          k = 0.1667 0.0962 0.0000 (  6253 PWs)   bands (ev):

  -131.5846-131.5840 -84.9638 -84.9637 -84.9493 -84.9492 -84.7354 -84.7352
   -84.7209 -84.7207 -84.5342 -84.5340 -73.4784 -73.4653 -73.4603 -73.4453
   -70.3526 -70.3437 -45.3707 -45.3590 -45.2547 -45.2489 -45.2192 -45.2092
   -45.1530 -45.1432 -45.0869 -45.0837 -45.0609 -45.0497 -45.0163 -45.0081
   -45.0067 -44.9813 -44.9457 -44.9178 -44.9106 -44.9038 -44.8967 -44.8895
   -44.8834 -44.8777 -44.8057 -44.7940 -44.7200 -44.7181 -44.5675 -44.5513
   -38.5269 -38.5261 -29.6513 -29.6505 -22.3570 -22.3556 -22.3499 -22.3476
   -14.8794 -14.8762 -14.7833 -14.7816 -14.7608 -14.7533  -6.0645  -6.0439
    -4.5716  -4.5502  -4.5102  -4.4879   0.4129   0.4789   0.5031   0.5303
     3.2699   3.3605  10.6429  12.3385  12.9882  13.9306  14.0542  14.0596
    14.2626  14.3438  14.3623  14.8196  14.8560  14.9164  15.0567  15.1201
    15.2090  15.2727  15.4108  15.4755  15.5149  15.6774  15.6900  15.7607
    15.8642  15.8858  16.0366  16.0426  16.1967  16.2120  16.3050  16.4094
    16.5136  16.6648  16.7085  16.7166  16.8230  16.8732  16.9541  16.9555
    16.9843  17.1344  17.1407  17.1958  17.2413  17.3278  17.3379  17.4217
    17.4847  17.5617  17.6179  17.7643  17.7965  17.8648  18.0431  18.0528
    18.2756  18.2827  18.4747  18.9130  19.0698  19.2875  19.4612  19.5686
    19.5888  19.6223  19.8071  19.9109  20.0406  20.0720  20.1736  20.3585
    20.4512  20.5760  20.7770  20.8552  21.3505  21.5945  21.8311  22.4790
    23.1277  23.4631  23.7337  24.3053  24.5578  24.9810

          k =-0.1667 0.0962 0.1535 (  6246 PWs)   bands (ev):

  -131.5843-131.5831 -84.9642 -84.9640 -84.9489 -84.9489 -84.7350 -84.7349
   -84.7212 -84.7211 -84.5341 -84.5340 -73.4683 -73.4618 -73.4528 -73.4503
   -70.3463 -70.3445 -45.3649 -45.3634 -45.2499 -45.2479 -45.2154 -45.2143
   -45.1509 -45.1415 -45.0841 -45.0817 -45.0645 -45.0516 -45.0165 -45.0081
   -44.9910 -44.9745 -44.9357 -44.9187 -44.9130 -44.9059 -44.8985 -44.8929
   -44.8800 -44.8715 -44.8037 -44.7971 -44.7211 -44.7126 -44.5565 -44.5537
   -38.5268 -38.5263 -29.6524 -29.6491 -22.3553 -22.3542 -22.3496 -22.3487
   -14.8782 -14.8759 -14.7843 -14.7830 -14.7592 -14.7540  -6.0619  -6.0445
    -4.5683  -4.5527  -4.5071  -4.4906   0.4326   0.4956   0.5116   0.5185
     3.2759   3.3460  10.8005  11.8109  13.5349  13.9877  14.1023  14.1566
    14.2696  14.3280  14.4516  14.6811  14.8516  14.8931  14.9145  15.1066
    15.1332  15.1968  15.2826  15.3782  15.4409  15.5373  15.7165  15.7930
    16.0316  16.0709  16.1199  16.1889  16.2976  16.3370  16.3624  16.5224
    16.5842  16.6678  16.7164  16.7752  16.7834  16.8335  16.8631  16.9673
    16.9949  17.0314  17.1148  17.1911  17.2226  17.2754  17.3227  17.3758
    17.4226  17.4892  17.6343  17.7149  17.7949  17.8479  17.9397  18.0025
    18.0141  18.1296  18.2741  18.5097  19.1789  19.2483  19.3159  19.5232
    19.5425  19.7866  19.8760  19.9336  20.0489  20.1734  20.3019  20.3717
    20.5149  20.5753  21.0707  21.2616  21.3312  21.5484  21.9537  22.5351
    22.9670  23.4428  24.1242  24.4833  24.8603  25.1318

          k = 0.1667 0.0962 0.1535 (  6246 PWs)   bands (ev):

  -131.5843-131.5837 -84.9638 -84.9636 -84.9493 -84.9492 -84.7354 -84.7353
   -84.7209 -84.7207 -84.5341 -84.5340 -73.4704 -73.4599 -73.4524 -73.4456
   -70.3499 -70.3443 -45.3598 -45.3587 -45.2515 -45.2489 -45.2168 -45.2139
   -45.1516 -45.1465 -45.0859 -45.0813 -45.0615 -45.0535 -45.0157 -45.0099
   -44.9936 -44.9814 -44.9356 -44.9206 -44.9115 -44.9037 -44.9009 -44.8861
   -44.8747 -44.8705 -44.8058 -44.7943 -44.7193 -44.7168 -44.5565 -44.5546
   -38.5268 -38.5262 -29.6528 -29.6513 -22.3554 -22.3550 -22.3489 -22.3485
   -14.8789 -14.8766 -14.7831 -14.7819 -14.7596 -14.7544  -6.0564  -6.0429
    -4.5646  -4.5503  -4.5040  -4.4890   0.4293   0.4826   0.4963   0.5188
     3.2834   3.3470  10.7834  11.8083  13.5127  13.9874  14.0289  14.1447
    14.2481  14.3356  14.4135  14.8092  14.8220  14.8535  14.9403  15.0995
    15.1391  15.2088  15.3336  15.3791  15.4649  15.4899  15.7283  15.7783
    15.9134  16.0161  16.1202  16.2136  16.2606  16.3485  16.3965  16.4680
    16.5730  16.6644  16.7393  16.7545  16.7948  16.8342  16.9385  17.0057
    17.0704  17.1091  17.1633  17.1944  17.2324  17.2897  17.3243  17.4054
    17.4250  17.6243  17.6325  17.6814  17.7831  17.8263  17.9774  18.0613
    18.1132  18.1579  18.2981  18.9061  19.1849  19.3126  19.4729  19.5367
    19.6154  19.6787  19.8179  19.8808  19.9100  19.9941  20.0828  20.1651
    20.4330  20.5281  20.9489  21.1802  21.4257  21.7456  22.0377  22.3830
    22.9390  23.4739  23.7060  24.1929  24.7943  25.3274

          k =-0.1667 0.0962-0.3069 (  6226 PWs)   bands (ev):

  -131.5824-131.5824 -84.9640 -84.9640 -84.9489 -84.9489 -84.7349 -84.7349
   -84.7211 -84.7211 -84.5341 -84.5341 -73.4593 -73.4593 -73.4457 -73.4457
   -70.3435 -70.3435 -45.3583 -45.3583 -45.2472 -45.2472 -45.2110 -45.2110
   -45.1456 -45.1456 -45.0812 -45.0812 -45.0541 -45.0541 -45.0093 -45.0093
   -44.9778 -44.9778 -44.9197 -44.9197 -44.9002 -44.9002 -44.8841 -44.8841
   -44.8736 -44.8736 -44.8001 -44.8001 -44.7143 -44.7143 -44.5483 -44.5483
   -38.5265 -38.5265 -29.6502 -29.6502 -22.3538 -22.3538 -22.3482 -22.3482
   -14.8770 -14.8770 -14.7836 -14.7836 -14.7566 -14.7566  -6.0502  -6.0502
    -4.5591  -4.5591  -4.4959  -4.4959   0.4728   0.4728   0.5070   0.5070
     3.3121   3.3121  11.2040  11.2040  14.0075  14.0075  14.1527  14.1527
    14.3003  14.3003  14.4987  14.4987  14.8020  14.8020  14.9797  14.9797
    15.1464  15.1464  15.2796  15.2796  15.4444  15.4444  15.6852  15.6852
    16.1815  16.1815  16.2575  16.2575  16.4463  16.4463  16.4976  16.4976
    16.6863  16.6863  16.7373  16.7373  16.8145  16.8145  17.0008  17.0008
    17.0652  17.0652  17.1568  17.1568  17.1944  17.1944  17.3170  17.3170
    17.4081  17.4081  17.5741  17.5741  17.6855  17.6855  17.9177  17.9177
    18.0237  18.0237  18.2859  18.2859  19.2844  19.2844  19.4368  19.4368
    19.7704  19.7704  19.8838  19.8838  20.0022  20.0022  20.2363  20.2363
    20.5788  20.5788  21.3244  21.3244  21.6450  21.6450  22.3249  22.3249
    22.8268  22.8268  24.3785  24.3785  25.0396  25.0396

          k = 0.1667 0.0962-0.3069 (  6226 PWs)   bands (ev):

  -131.5827-131.5827 -84.9637 -84.9637 -84.9492 -84.9492 -84.7353 -84.7353
   -84.7208 -84.7208 -84.5341 -84.5341 -73.4589 -73.4589 -73.4476 -73.4476
   -70.3438 -70.3438 -45.3540 -45.3540 -45.2445 -45.2445 -45.2116 -45.2116
   -45.1470 -45.1470 -45.0814 -45.0814 -45.0553 -45.0553 -45.0148 -45.0148
   -44.9876 -44.9876 -44.9206 -44.9206 -44.9030 -44.9030 -44.8863 -44.8863
   -44.8667 -44.8667 -44.7935 -44.7935 -44.7114 -44.7114 -44.5472 -44.5472
   -38.5265 -38.5265 -29.6497 -29.6497 -22.3532 -22.3532 -22.3484 -22.3484
   -14.8777 -14.8777 -14.7825 -14.7825 -14.7570 -14.7570  -6.0474  -6.0474
    -4.5553  -4.5553  -4.4947  -4.4947   0.4642   0.4642   0.5000   0.5000
     3.3179   3.3179  11.1928  11.1928  13.9761  13.9761  14.1192  14.1192
    14.2753  14.2753  14.5729  14.5729  14.7799  14.7799  14.9767  14.9767
    15.1481  15.1481  15.3182  15.3182  15.4264  15.4264  15.6836  15.6836
    16.0767  16.0767  16.2571  16.2571  16.3790  16.3790  16.5599  16.5599
    16.6142  16.6142  16.7861  16.7861  16.8410  16.8410  17.0228  17.0228
    17.0959  17.0959  17.1777  17.1777  17.2306  17.2306  17.3547  17.3547
    17.4999  17.4999  17.6014  17.6014  17.7272  17.7272  17.8597  17.8597
    18.1799  18.1799  18.4526  18.4526  19.3538  19.3538  19.5515  19.5515
    19.6525  19.6525  19.8449  19.8449  19.8977  19.8977  19.9880  19.9880
    20.4826  20.4826  21.3389  21.3389  21.4767  21.4767  22.4159  22.4159
    23.0739  23.0739  23.8167  23.8167  25.3562  25.3562

          k =-0.3333 0.1925 0.0000 (  6250 PWs)   bands (ev):

  -131.5854-131.5829 -84.9642 -84.9639 -84.9489 -84.9488 -84.7343 -84.7340
   -84.7221 -84.7219 -84.5342 -84.5341 -73.4752 -73.4616 -73.4565 -73.4493
   -70.3571 -70.3449 -45.3698 -45.3603 -45.2485 -45.2473 -45.2196 -45.2189
   -45.1544 -45.1456 -45.0807 -45.0770 -45.0634 -45.0491 -45.0314 -45.0075
   -44.9864 -44.9608 -44.9607 -44.9231 -44.9050 -44.9046 -44.8907 -44.8833
   -44.8821 -44.8628 -44.8241 -44.8148 -44.7300 -44.7279 -44.5604 -44.5567
   -38.5260 -38.5252 -29.6590 -29.6500 -22.3556 -22.3548 -22.3500 -22.3492
   -14.8803 -14.8772 -14.7886 -14.7868 -14.7611 -14.7537  -6.0608  -6.0459
    -4.5699  -4.5508  -4.5057  -4.4896   0.4338   0.4765   0.4962   0.5187
     3.2417   3.3324  11.3536  12.8154  13.4016  13.5904  14.0543  14.2320
    14.4757  14.5217  14.6502  14.7917  15.0520  15.0837  15.1952  15.2387
    15.2624  15.4006  15.5176  15.5404  15.6367  15.7228  15.7467  15.7574
    15.8948  15.9730  15.9980  16.1109  16.1193  16.2351  16.2495  16.3177
    16.3620  16.4836  16.5525  16.5644  16.6482  16.6929  16.6970  16.8729
    16.9135  16.9462  16.9599  16.9754  16.9926  17.0513  17.1420  17.1681
    17.2571  17.3097  17.4138  17.4262  17.4858  17.5644  17.6152  17.6299
    17.7380  17.9935  18.0525  18.3289  18.8405  18.9156  19.1257  19.4650
    19.5777  19.6946  19.7234  19.9142  19.9525  20.2181  20.2768  20.4112
    20.5210  20.6648  21.1766  21.2047  21.4238  21.8631  22.1154  23.5105
    23.7518  24.2994  24.6805  25.7853  26.0670  26.3709

          k = 0.3333 0.1925 0.0000 (  6250 PWs)   bands (ev):

  -131.5857-131.5836 -84.9630 -84.9627 -84.9501 -84.9501 -84.7355 -84.7352
   -84.7209 -84.7207 -84.5342 -84.5340 -73.4767 -73.4575 -73.4534 -73.4521
   -70.3477 -70.3399 -45.3588 -45.3588 -45.2534 -45.2502 -45.2146 -45.2057
   -45.1580 -45.1548 -45.0908 -45.0791 -45.0695 -45.0450 -45.0270 -45.0196
   -45.0020 -44.9849 -44.9656 -44.9145 -44.9088 -44.9064 -44.9011 -44.8906
   -44.8738 -44.8667 -44.8050 -44.7938 -44.7209 -44.7153 -44.5570 -44.5552
   -38.5259 -38.5252 -29.6499 -29.6448 -22.3566 -22.3528 -22.3517 -22.3485
   -14.8825 -14.8795 -14.7850 -14.7833 -14.7624 -14.7548  -6.0550  -6.0445
    -4.5661  -4.5483  -4.5038  -4.4939   0.4284   0.4378   0.4504   0.5168
     3.2703   3.3372  11.2939  12.9133  13.0956  13.6885  14.0758  14.0969
    14.4244  14.5773  14.7360  14.9100  14.9807  15.1010  15.1982  15.3167
    15.3552  15.3687  15.4903  15.5009  15.5296  15.5882  15.6483  15.6748
    15.7652  15.9472  15.9601  16.0135  16.1099  16.1124  16.2676  16.3231
    16.4208  16.5153  16.5250  16.6290  16.7566  16.7854  16.8145  16.9191
    16.9551  16.9967  17.0666  17.0690  17.0887  17.1328  17.1972  17.2510
    17.2724  17.3352  17.3812  17.5490  17.6618  17.6618  17.8199  17.8496
    17.9322  18.1097  18.2336  18.5125  18.6577  19.1752  19.2970  19.3512
    19.5862  19.6325  19.7309  19.7407  19.8337  19.8923  19.9937  20.3170
    20.6227  20.6345  21.0222  21.4732  21.5009  21.8177  22.4073  22.4311
    23.3456  23.7846  24.2192  24.7667  25.5314  25.9713

          k =-0.3333 0.1925 0.1535 (  6249 PWs)   bands (ev):

  -131.5849-131.5832 -84.9642 -84.9639 -84.9489 -84.9489 -84.7343 -84.7341
   -84.7221 -84.7219 -84.5342 -84.5341 -73.4689 -73.4648 -73.4525 -73.4498
   -70.3517 -70.3453 -45.3667 -45.3612 -45.2528 -45.2513 -45.2165 -45.2140
   -45.1493 -45.1467 -45.0785 -45.0747 -45.0608 -45.0508 -45.0224 -45.0094
   -44.9796 -44.9691 -44.9555 -44.9209 -44.9128 -44.8979 -44.8903 -44.8838
   -44.8805 -44.8763 -44.8251 -44.8167 -44.7301 -44.7269 -44.5597 -44.5566
   -38.5258 -38.5253 -29.6554 -29.6516 -22.3557 -22.3555 -22.3504 -22.3498
   -14.8799 -14.8776 -14.7883 -14.7870 -14.7600 -14.7548  -6.0585  -6.0440
    -4.5663  -4.5501  -4.5048  -4.4903   0.4460   0.4805   0.4917   0.5075
     3.2565   3.3199  11.4755  12.3693  13.5637  13.7818  14.0679  14.3341
    14.4969  14.5442  14.6499  14.7495  15.0454  15.1175  15.1410  15.2056
    15.2624  15.3322  15.4049  15.5531  15.6034  15.6669  15.7552  15.7695
    15.9500  16.0136  16.0936  16.1335  16.1797  16.2526  16.3103  16.3445
    16.4309  16.4909  16.5388  16.5642  16.6762  16.7082  16.7312  16.7841
    16.8444  16.9059  16.9149  17.0054  17.0152  17.0789  17.1472  17.2044
    17.2341  17.2790  17.3488  17.4146  17.5393  17.5812  17.6142  17.6621
    17.6918  17.8181  17.9352  18.1959  18.8731  19.0080  19.1729  19.3959
    19.6060  19.6643  19.7144  19.8745  19.9993  20.1369  20.2289  20.4029
    20.6979  20.7912  21.1535  21.2160  21.7773  21.9190  22.1574  22.9352
    23.7620  24.0012  24.7764  25.6122  25.8207  26.2154

          k = 0.3333 0.1925 0.1535 (  6249 PWs)   bands (ev):

  -131.5848-131.5842 -84.9629 -84.9628 -84.9501 -84.9501 -84.7354 -84.7352
   -84.7209 -84.7208 -84.5342 -84.5341 -73.4758 -73.4616 -73.4561 -73.4471
   -70.3478 -70.3459 -45.3580 -45.3555 -45.2521 -45.2480 -45.2137 -45.2092
   -45.1554 -45.1539 -45.0861 -45.0775 -45.0590 -45.0479 -45.0235 -45.0186
   -45.0064 -44.9905 -44.9548 -44.9236 -44.9080 -44.9073 -44.8962 -44.8917
   -44.8783 -44.8678 -44.8029 -44.7969 -44.7220 -44.7186 -44.5585 -44.5547
   -38.5258 -38.5253 -29.6504 -29.6491 -22.3556 -22.3546 -22.3506 -22.3488
   -14.8820 -14.8799 -14.7848 -14.7835 -14.7613 -14.7559  -6.0506  -6.0449
    -4.5607  -4.5470  -4.5011  -4.4945   0.4238   0.4418   0.4586   0.5077
     3.2795   3.3263  11.4227  12.3620  13.4064  13.8102  14.0289  14.2692
    14.4426  14.5293  14.7760  14.8895  14.9949  15.0764  15.1049  15.2642
    15.2949  15.3411  15.3923  15.4767  15.5687  15.6263  15.6586  15.7410
    15.8609  15.9153  15.9995  16.0513  16.1326  16.1806  16.3114  16.3661
    16.3866  16.4443  16.4745  16.6167  16.6941  16.7758  16.8477  16.9093
    16.9818  17.0160  17.0687  17.0899  17.1103  17.1823  17.2608  17.2718
    17.2890  17.3401  17.4497  17.4940  17.6170  17.6468  17.7023  17.7993
    18.0039  18.0862  18.2970  18.3393  18.6730  19.1278  19.2999  19.3995
    19.5727  19.5787  19.7343  19.7571  19.8323  19.8716  20.0069  20.1622
    20.5284  20.8585  21.0006  21.4881  21.6763  21.8141  22.3126  22.5342
    23.1784  23.7620  23.9863  24.6788  25.5705  26.1633

          k =-0.3333 0.1925-0.3069 (  6240 PWs)   bands (ev):

  -131.5834-131.5834 -84.9640 -84.9640 -84.9489 -84.9489 -84.7341 -84.7341
   -84.7220 -84.7220 -84.5341 -84.5341 -73.4603 -73.4603 -73.4495 -73.4495
   -70.3467 -70.3467 -45.3614 -45.3614 -45.2471 -45.2471 -45.2146 -45.2146
   -45.1452 -45.1452 -45.0815 -45.0815 -45.0561 -45.0561 -45.0143 -45.0143
   -44.9716 -44.9716 -44.9333 -44.9333 -44.9008 -44.9008 -44.8835 -44.8835
   -44.8741 -44.8741 -44.8195 -44.8195 -44.7252 -44.7252 -44.5527 -44.5527
   -38.5256 -38.5256 -29.6531 -29.6531 -22.3550 -22.3550 -22.3496 -22.3496
   -14.8787 -14.8787 -14.7877 -14.7877 -14.7574 -14.7574  -6.0486  -6.0486
    -4.5556  -4.5556  -4.4960  -4.4960   0.4738   0.4738   0.4896   0.4896
     3.2890   3.2890  11.8329  11.8329  13.6942  13.6942  14.3808  14.3808
    14.5427  14.5427  14.6384  14.6384  15.0779  15.0779  15.1560  15.1560
    15.2456  15.2456  15.4465  15.4465  15.6265  15.6265  15.7415  15.7415
    16.0315  16.0315  16.1460  16.1460  16.2929  16.2929  16.3874  16.3874
    16.4550  16.4550  16.5893  16.5893  16.6763  16.6763  16.7910  16.7910
    16.8498  16.8498  16.9249  16.9249  17.0359  17.0359  17.1519  17.1519
    17.2477  17.2477  17.3825  17.3825  17.5570  17.5570  17.6408  17.6408
    17.7195  17.7195  17.8983  17.8983  19.0248  19.0248  19.2677  19.2677
    19.6143  19.6143  19.7795  19.7795  20.0768  20.0768  20.4765  20.4765
    20.5590  20.5590  21.4107  21.4107  21.8256  21.8256  22.8924  22.8924
    23.1218  23.1218  25.2694  25.2694  25.9941  25.9941

          k = 0.3333 0.1925-0.3069 (  6240 PWs)   bands (ev):

  -131.5842-131.5842 -84.9628 -84.9628 -84.9501 -84.9501 -84.7353 -84.7353
   -84.7208 -84.7208 -84.5341 -84.5341 -73.4627 -73.4627 -73.4490 -73.4490
   -70.3481 -70.3481 -45.3521 -45.3521 -45.2462 -45.2462 -45.2108 -45.2108
   -45.1554 -45.1554 -45.0817 -45.0817 -45.0543 -45.0543 -45.0138 -45.0138
   -44.9977 -44.9977 -44.9341 -44.9341 -44.9040 -44.9040 -44.8897 -44.8897
   -44.8718 -44.8718 -44.7993 -44.7993 -44.7180 -44.7180 -44.5514 -44.5514
   -38.5256 -38.5256 -29.6521 -29.6521 -22.3539 -22.3539 -22.3508 -22.3508
   -14.8810 -14.8810 -14.7842 -14.7842 -14.7586 -14.7586  -6.0441  -6.0441
    -4.5494  -4.5494  -4.4960  -4.4960   0.4306   0.4306   0.4860   0.4860
     3.3030   3.3030  11.7980  11.7980  13.6184  13.6184  14.3551  14.3551
    14.4401  14.4401  14.8366  14.8366  14.9884  14.9884  15.1393  15.1393
    15.2838  15.2838  15.3983  15.3983  15.6151  15.6151  15.7387  15.7387
    15.8989  15.8989  16.1004  16.1004  16.1812  16.1812  16.3090  16.3090
    16.3954  16.3954  16.6059  16.6059  16.6940  16.6940  16.9075  16.9075
    16.9811  16.9811  17.0659  17.0659  17.2055  17.2055  17.2748  17.2748
    17.3418  17.3418  17.4675  17.4675  17.6624  17.6624  17.7094  17.7094
    17.9788  17.9788  18.2647  18.2647  18.8537  18.8537  19.4399  19.4399
    19.5440  19.5440  19.7416  19.7416  19.8767  19.8767  20.0072  20.0072
    20.5946  20.5946  21.4923  21.4923  21.6767  21.6767  22.4082  22.4082
    23.5709  23.5709  23.9182  23.9182  26.1639  26.1639

          k = 0.5000-0.2887 0.0000 (  6248 PWs)   bands (ev):

  -131.5838-131.5838 -84.9641 -84.9640 -84.9489 -84.9488 -84.7338 -84.7336
   -84.7225 -84.7224 -84.5343 -84.5340 -73.4716 -73.4570 -73.4546 -73.4485
   -70.3535 -70.3479 -45.3668 -45.3598 -45.2556 -45.2396 -45.2205 -45.2122
   -45.1554 -45.1403 -45.0913 -45.0815 -45.0585 -45.0502 -45.0252 -45.0018
   -44.9919 -44.9785 -44.9404 -44.9139 -44.8976 -44.8946 -44.8833 -44.8757
   -44.8753 -44.8622 -44.8400 -44.8331 -44.7366 -44.7343 -44.5592 -44.5530
   -38.5255 -38.5247 -29.6557 -29.6551 -22.3540 -22.3529 -22.3514 -22.3513
   -14.8811 -14.8781 -14.7906 -14.7889 -14.7615 -14.7541  -6.0573  -6.0409
    -4.5674  -4.5459  -4.5043  -4.4856   0.4449   0.4692   0.4847   0.5116
     3.2358   3.3168  12.1501  12.6769  13.1837  13.8965  13.9062  14.1890
    14.5723  14.7708  14.8774  14.9483  15.1341  15.1773  15.2069  15.3494
    15.3562  15.4708  15.5777  15.6064  15.6309  15.6604  15.7300  15.8575
    15.9177  15.9777  16.0320  16.0342  16.1480  16.2224  16.2319  16.2340
    16.2771  16.3352  16.4660  16.4975  16.5099  16.5168  16.6217  16.6977
    16.7504  16.8129  16.8501  16.8613  16.8820  16.9302  16.9746  17.0627
    17.1829  17.2449  17.2755  17.3555  17.3731  17.4244  17.4490  17.5571
    17.6242  17.7985  18.0594  18.2917  18.7896  18.8268  19.0717  19.3984
    19.5303  19.5951  19.6821  19.7833  20.0342  20.1245  20.2543  20.2616
    20.5038  20.6513  21.3588  21.4568  21.6198  21.8617  22.8255  22.9480
    24.0169  25.1204  25.3743  26.2176  26.4252  26.9045

          k =-0.5000-0.2887 0.0000 (  6248 PWs)   bands (ev):

  -131.5873-131.5849 -84.9624 -84.9623 -84.9506 -84.9506 -84.7355 -84.7353
   -84.7208 -84.7207 -84.5343 -84.5340 -73.4733 -73.4707 -73.4494 -73.4459
   -70.3526 -70.3469 -45.3542 -45.3512 -45.2556 -45.2469 -45.2232 -45.1889
   -45.1699 -45.1582 -45.0989 -45.0716 -45.0611 -45.0506 -45.0323 -45.0172
   -45.0052 -44.9819 -44.9797 -44.9258 -44.9026 -44.8901 -44.8878 -44.8865
   -44.8813 -44.8679 -44.8054 -44.7970 -44.7360 -44.7023 -44.5502 -44.5477
   -38.5254 -38.5247 -29.6535 -29.6513 -22.3558 -22.3531 -22.3509 -22.3495
   -14.8841 -14.8812 -14.7857 -14.7842 -14.7632 -14.7554  -6.0492  -6.0465
    -4.5659  -4.5506  -4.4980  -4.4865   0.4193   0.4219   0.4376   0.5084
     3.2704   3.3222  12.1367  12.3672  13.5754  13.7236  13.8153  14.0968
    14.6171  14.7275  15.0045  15.0255  15.1734  15.2116  15.2118  15.2569
    15.3534  15.3579  15.4797  15.5189  15.5973  15.6293  15.7330  15.8200
    15.8236  15.8350  15.8733  15.9575  16.0196  16.1342  16.1723  16.2017
    16.2704  16.2917  16.3062  16.3435  16.5206  16.6670  16.7251  16.9208
    16.9505  16.9910  16.9915  17.0765  17.1321  17.1433  17.1622  17.1781
    17.2127  17.3143  17.3767  17.4200  17.5873  17.6945  17.7018  17.8786
    17.9140  17.9399  18.1035  18.1972  18.5979  19.1060  19.1626  19.2773
    19.5065  19.5070  19.6700  19.7995  19.8387  19.8743  19.9982  20.2643
    20.5936  20.6180  21.1121  21.7278  21.8404  22.0752  22.3190  22.8373
    23.0206  23.7580  24.3099  24.9635  25.6966  26.6916

          k = 0.5000-0.2887 0.1535 (  6254 PWs)   bands (ev):

  -131.5841-131.5840 -84.9641 -84.9639 -84.9489 -84.9489 -84.7338 -84.7336
   -84.7225 -84.7224 -84.5342 -84.5341 -73.4656 -73.4585 -73.4562 -73.4536
   -70.3516 -70.3509 -45.3728 -45.3559 -45.2532 -45.2528 -45.2179 -45.2148
   -45.1534 -45.1500 -45.0762 -45.0738 -45.0631 -45.0520 -45.0260 -45.0116
   -44.9767 -44.9685 -44.9516 -44.9246 -44.9107 -44.8921 -44.8874 -44.8862
   -44.8759 -44.8685 -44.8422 -44.8319 -44.7410 -44.7339 -44.5593 -44.5556
   -38.5254 -38.5248 -29.6563 -29.6555 -22.3560 -22.3540 -22.3514 -22.3512
   -14.8807 -14.8786 -14.7904 -14.7891 -14.7604 -14.7552  -6.0541  -6.0451
    -4.5619  -4.5490  -4.5028  -4.4926   0.4547   0.4708   0.4816   0.5018
     3.2466   3.3046  12.2358  12.7778  12.8942  13.5366  14.2110  14.4152
    14.6425  14.7186  14.8320  14.9148  15.1387  15.2312  15.2316  15.3412
    15.3716  15.4195  15.5661  15.6354  15.6509  15.6625  15.7091  15.8475
    15.8764  15.9346  15.9369  16.0981  16.1464  16.2103  16.2134  16.2723
    16.3202  16.3303  16.4926  16.4997  16.5507  16.5926  16.6079  16.6715
    16.7106  16.7559  16.8068  16.8642  16.8705  16.9603  16.9681  17.1042
    17.1979  17.2494  17.3296  17.3552  17.4296  17.4323  17.5023  17.5331
    17.5892  17.7292  17.9432  18.1139  18.8329  18.8952  19.0997  19.3473
    19.4836  19.5235  19.7146  19.7779  20.0203  20.1095  20.1499  20.4356
    20.7603  20.8540  21.0930  21.5526  21.7570  22.0025  22.4588  22.7728
    24.4530  24.5033  24.7491  26.1909  26.5818  26.9067

          k =-0.5000-0.2887 0.1535 (  6254 PWs)   bands (ev):

  -131.5867-131.5841 -84.9625 -84.9623 -84.9506 -84.9506 -84.7354 -84.7353
   -84.7208 -84.7208 -84.5342 -84.5341 -73.4675 -73.4656 -73.4555 -73.4537
   -70.3544 -70.3475 -45.3543 -45.3516 -45.2514 -45.2475 -45.2174 -45.2024
   -45.1616 -45.1612 -45.0961 -45.0794 -45.0490 -45.0480 -45.0363 -45.0289
   -45.0074 -44.9972 -44.9638 -44.9409 -44.9146 -44.9080 -44.8952 -44.8880
   -44.8731 -44.8647 -44.8027 -44.7927 -44.7256 -44.7142 -44.5572 -44.5481
   -38.5253 -38.5248 -29.6538 -29.6518 -22.3556 -22.3551 -22.3511 -22.3507
   -14.8837 -14.8816 -14.7856 -14.7845 -14.7621 -14.7566  -6.0473  -6.0449
    -4.5615  -4.5482  -4.4963  -4.4929   0.4100   0.4159   0.4576   0.5017
     3.2747   3.3144  12.2345  12.4276  13.2605  13.3068  14.2097  14.3371
    14.6297  14.6574  14.9646  15.0014  15.1049  15.2099  15.2379  15.2900
    15.3963  15.4335  15.5103  15.5358  15.5391  15.5904  15.7479  15.7719
    15.8083  15.8612  15.9336  15.9408  16.0138  16.0511  16.0867  16.1556
    16.2442  16.2632  16.4576  16.5082  16.5634  16.5870  16.7327  16.9006
    16.9508  16.9564  17.0555  17.0689  17.1162  17.1722  17.1837  17.2182
    17.2933  17.3213  17.3857  17.4209  17.4653  17.6734  17.6808  17.8118
    17.8962  18.0158  18.1403  18.2595  18.5733  18.8419  19.3058  19.3191
    19.4877  19.4910  19.7121  19.7758  19.7784  19.9014  20.0230  20.1128
    20.6868  20.7142  21.2046  21.7861  21.7912  21.8659  22.2312  22.4861
    23.3065  23.7483  23.9508  25.3879  25.6087  26.8067

          k = 0.5000-0.2887-0.3069 (  6272 PWs)   bands (ev):

  -131.5854-131.5854 -84.9641 -84.9641 -84.9489 -84.9489 -84.7337 -84.7337
   -84.7225 -84.7225 -84.5342 -84.5342 -73.4706 -73.4706 -73.4521 -73.4521
   -70.3550 -70.3550 -45.3692 -45.3692 -45.2508 -45.2508 -45.2248 -45.2248
   -45.1555 -45.1555 -45.0809 -45.0809 -45.0571 -45.0571 -45.0253 -45.0253
   -44.9699 -44.9699 -44.9472 -44.9472 -44.9012 -44.9012 -44.8868 -44.8868
   -44.8827 -44.8827 -44.8441 -44.8441 -44.7442 -44.7442 -44.5649 -44.5649
   -38.5251 -38.5251 -29.6587 -29.6587 -22.3576 -22.3576 -22.3515 -22.3515
   -14.8797 -14.8797 -14.7898 -14.7898 -14.7579 -14.7579  -6.0511  -6.0511
    -4.5573  -4.5573  -4.4984  -4.4984   0.4742   0.4742   0.4787   0.4787
     3.2737   3.2737  12.4914  12.4914  13.0948  13.0948  14.5252  14.5252
    14.6534  14.6534  14.8359  14.8359  15.2177  15.2177  15.3104  15.3104
    15.3645  15.3645  15.6379  15.6379  15.6639  15.6639  15.7766  15.7766
    15.8293  15.8293  15.9588  15.9588  16.2136  16.2136  16.2655  16.2655
    16.4106  16.4106  16.4633  16.4633  16.5393  16.5393  16.6641  16.6641
    16.7506  16.7506  16.7949  16.7949  16.8829  16.8829  17.0193  17.0193
    17.2587  17.2587  17.3646  17.3646  17.3994  17.3994  17.5636  17.5636
    17.7119  17.7119  17.7926  17.7926  18.8987  18.8987  19.2181  19.2181
    19.4476  19.4476  19.7490  19.7490  20.0643  20.0643  20.4704  20.4704
    20.7997  20.7997  21.3769  21.3769  21.6647  21.6647  23.1868  23.1868
    23.4239  23.4239  25.7977  25.7977  26.6917  26.6917

          k =-0.5000-0.2887-0.3069 (  6272 PWs)   bands (ev):

  -131.5859-131.5859 -84.9624 -84.9624 -84.9506 -84.9506 -84.7354 -84.7354
   -84.7208 -84.7208 -84.5342 -84.5342 -73.4741 -73.4741 -73.4669 -73.4669
   -70.3508 -70.3508 -45.3588 -45.3588 -45.2550 -45.2550 -45.2113 -45.2113
   -45.1646 -45.1646 -45.0948 -45.0948 -45.0447 -45.0447 -45.0320 -45.0320
   -45.0115 -45.0115 -44.9544 -44.9544 -44.9098 -44.9098 -44.8979 -44.8979
   -44.8867 -44.8867 -44.8007 -44.8007 -44.7221 -44.7221 -44.5594 -44.5594
   -38.5251 -38.5251 -29.6493 -29.6493 -22.3549 -22.3549 -22.3516 -22.3516
   -14.8827 -14.8827 -14.7850 -14.7850 -14.7594 -14.7594  -6.0536  -6.0536
    -4.5569  -4.5569  -4.5025  -4.5025   0.4080   0.4080   0.4823   0.4823
     3.2948   3.2948  12.4420  12.4420  13.0312  13.0312  14.4606  14.4606
    14.5995  14.5995  14.9616  14.9616  15.1521  15.1521  15.2816  15.2816
    15.4283  15.4283  15.4952  15.4952  15.6026  15.6026  15.7828  15.7828
    15.8361  15.8361  15.9123  15.9123  15.9894  15.9894  16.1386  16.1386
    16.2731  16.2731  16.4274  16.4274  16.6543  16.6543  16.7940  16.7940
    16.8967  16.8967  17.0344  17.0344  17.1911  17.1911  17.2326  17.2326
    17.3666  17.3666  17.4379  17.4379  17.5593  17.5593  17.7014  17.7014
    17.8552  17.8552  18.3042  18.3042  18.5786  18.5786  19.3601  19.3601
    19.5013  19.5013  19.7308  19.7308  19.8468  19.8468  20.0134  20.0134
    20.8701  20.8701  21.2552  21.2552  21.7631  21.7631  22.3852  22.3852
    23.6492  23.6492  24.1910  24.1910  26.6658  26.6658

          k =-0.1667 0.2887 0.0000 (  6240 PWs)   bands (ev):

  -131.5844-131.5821 -84.9638 -84.9636 -84.9493 -84.9492 -84.7342 -84.7341
   -84.7221 -84.7219 -84.5342 -84.5340 -73.4751 -73.4612 -73.4549 -73.4416
   -70.3483 -70.3440 -45.3665 -45.3633 -45.2537 -45.2416 -45.2210 -45.2141
   -45.1461 -45.1432 -45.0808 -45.0739 -45.0563 -45.0531 -45.0156 -45.0045
   -44.9916 -44.9762 -44.9418 -44.9276 -44.9048 -44.8974 -44.8885 -44.8828
   -44.8774 -44.8652 -44.8182 -44.8099 -44.7215 -44.7178 -44.5633 -44.5522
   -38.5262 -38.5254 -29.6533 -29.6493 -22.3568 -22.3530 -22.3487 -22.3477
   -14.8795 -14.8762 -14.7881 -14.7864 -14.7608 -14.7534  -6.0628  -6.0440
    -4.5681  -4.5491  -4.5100  -4.4894   0.4343   0.4852   0.5060   0.5187
     3.2447   3.3335  11.1585  12.6766  13.3902  13.7835  14.1242  14.2445
    14.3091  14.3386  14.6017  14.7379  15.0244  15.0588  15.1327  15.2018
    15.2815  15.3997  15.5300  15.5560  15.5836  15.6139  15.6524  15.7647
    15.8060  16.0177  16.0293  16.0768  16.1317  16.1536  16.2241  16.2256
    16.4437  16.4528  16.5483  16.5636  16.7266  16.7396  16.9085  16.9230
    16.9334  16.9480  17.0357  17.0475  17.1191  17.1588  17.1961  17.2220
    17.2805  17.4567  17.4825  17.5472  17.5820  17.6048  17.6519  17.6800
    17.7202  18.0995  18.2191  18.4820  18.6475  18.9593  19.1704  19.6139
    19.6379  19.6631  19.7764  19.9698  20.0398  20.3294  20.3724  20.5085
    20.5928  20.7045  20.7815  21.0613  21.2870  22.2200  22.3043  22.7950
    23.8208  24.1661  24.8874  25.2467  25.3964  25.7036

          k = 0.3333 0.0000 0.0000 (  6240 PWs)   bands (ev):

  -131.5842-131.5813 -84.9638 -84.9635 -84.9493 -84.9492 -84.7351 -84.7348
   -84.7212 -84.7211 -84.5342 -84.5340 -73.4733 -73.4595 -73.4550 -73.4478
   -70.3451 -70.3405 -45.3668 -45.3631 -45.2534 -45.2422 -45.2111 -45.2111
   -45.1545 -45.1451 -45.0863 -45.0804 -45.0650 -45.0424 -45.0150 -45.0022
   -44.9894 -44.9760 -44.9580 -44.9135 -44.9120 -44.9049 -44.9007 -44.8867
   -44.8763 -44.8720 -44.7990 -44.7938 -44.7206 -44.7160 -44.5622 -44.5496
   -38.5262 -38.5254 -29.6487 -29.6455 -22.3564 -22.3548 -22.3504 -22.3489
   -14.8810 -14.8779 -14.7858 -14.7840 -14.7616 -14.7540  -6.0559  -6.0401
    -4.5661  -4.5463  -4.5060  -4.4877   0.4254   0.4618   0.4795   0.5222
     3.2618   3.3461  11.0972  12.7033  13.2171  13.8459  14.1061  14.1851
    14.2924  14.5094  14.5120  14.9254  14.9259  14.9997  15.0738  15.2323
    15.2506  15.3681  15.4780  15.5726  15.5864  15.6228  15.6959  15.7600
    15.8299  15.9904  16.0345  16.0719  16.0985  16.1794  16.3141  16.3904
    16.5255  16.5525  16.5959  16.6589  16.7079  16.7705  16.7840  16.9179
    16.9675  16.9750  16.9913  17.0726  17.1233  17.1699  17.2347  17.2680
    17.2709  17.3150  17.5153  17.5513  17.6679  17.7112  17.7687  17.8501
    17.9481  18.0926  18.3216  18.3278  18.6432  19.0199  19.1421  19.4710
    19.5849  19.7591  19.7718  19.8433  19.9321  20.0568  20.2022  20.4374
    20.6213  20.7666  20.8045  21.1509  21.2701  22.1488  22.4021  22.4658
    23.5459  24.3118  24.3345  24.5540  24.9800  26.0363

          k =-0.1667 0.2887 0.1535 (  6242 PWs)   bands (ev):

  -131.5834-131.5829 -84.9638 -84.9636 -84.9493 -84.9492 -84.7342 -84.7341
   -84.7220 -84.7219 -84.5342 -84.5340 -73.4663 -73.4618 -73.4548 -73.4476
   -70.3486 -70.3452 -45.3617 -45.3592 -45.2516 -45.2486 -45.2214 -45.2131
   -45.1489 -45.1446 -45.0807 -45.0762 -45.0577 -45.0533 -45.0191 -45.0074
   -44.9927 -44.9793 -44.9375 -44.9171 -44.9065 -44.8947 -44.8873 -44.8806
   -44.8748 -44.8717 -44.8206 -44.8159 -44.7263 -44.7189 -44.5593 -44.5522
   -38.5261 -38.5255 -29.6533 -29.6513 -22.3557 -22.3544 -22.3491 -22.3473
   -14.8790 -14.8766 -14.7878 -14.7866 -14.7597 -14.7545  -6.0598  -6.0438
    -4.5678  -4.5520  -4.5044  -4.4875   0.4457   0.4883   0.5012   0.5085
     3.2569   3.3208  11.2869  12.2158  13.8172  13.8417  14.0743  14.2344
    14.3073  14.4507  14.5825  14.7786  15.0028  15.0426  15.0758  15.1771
    15.2463  15.2876  15.3634  15.4315  15.5588  15.6155  15.7151  15.7692
    15.9474  16.0454  16.0762  16.1758  16.1840  16.2428  16.3149  16.3992
    16.4479  16.4819  16.5341  16.6048  16.7222  16.7424  16.8415  16.8719
    16.9048  16.9582  17.0061  17.0545  17.0835  17.1249  17.1707  17.2383
    17.2959  17.3415  17.4413  17.4545  17.5761  17.5940  17.6382  17.7230
    17.7505  17.8869  18.0329  18.3112  18.9031  19.1643  19.2768  19.5477
    19.6028  19.6897  19.7744  19.9244  19.9607  20.2864  20.3353  20.3901
    20.5146  20.6373  21.0144  21.4532  21.5775  22.0139  22.3555  22.7874
    23.1394  24.3224  24.6909  25.1837  25.3144  25.8173

          k = 0.3333 0.0000 0.1535 (  6242 PWs)   bands (ev):

  -131.5841-131.5819 -84.9637 -84.9636 -84.9493 -84.9492 -84.7350 -84.7349
   -84.7212 -84.7211 -84.5342 -84.5340 -73.4715 -73.4610 -73.4566 -73.4457
   -70.3471 -70.3440 -45.3624 -45.3587 -45.2509 -45.2468 -45.2154 -45.2090
   -45.1568 -45.1463 -45.0839 -45.0806 -45.0611 -45.0526 -45.0167 -45.0085
   -44.9925 -44.9767 -44.9553 -44.9188 -44.9058 -44.9016 -44.8985 -44.8835
   -44.8766 -44.8660 -44.8047 -44.7987 -44.7245 -44.7176 -44.5571 -44.5510
   -38.5261 -38.5255 -29.6497 -29.6487 -22.3554 -22.3543 -22.3507 -22.3488
   -14.8805 -14.8784 -14.7856 -14.7843 -14.7605 -14.7551  -6.0553  -6.0429
    -4.5636  -4.5485  -4.5041  -4.4909   0.4340   0.4670   0.4751   0.5122
     3.2733   3.3320  11.2300  12.1889  13.6754  13.8984  14.1012  14.2111
    14.2785  14.4770  14.5952  14.8438  14.9437  15.0045  15.0413  15.2033
    15.2464  15.3135  15.3504  15.4825  15.5544  15.5921  15.7340  15.8143
    15.9045  16.0116  16.0911  16.1338  16.2158  16.2466  16.3351  16.3783
    16.4923  16.5266  16.5841  16.6463  16.7420  16.7548  16.8523  16.8953
    16.9415  16.9753  17.0377  17.1192  17.1445  17.1793  17.2354  17.2544
    17.2685  17.3460  17.4566  17.5711  17.6101  17.6984  17.7274  17.7530
    17.8883  18.0517  18.1477  18.2204  18.7878  19.0637  19.1722  19.4312
    19.6259  19.7393  19.7858  19.8017  19.9246  20.0433  20.2035  20.2716
    20.5746  20.7880  21.0812  21.3274  21.6094  22.1010  22.2466  22.3963
    23.0684  23.6912  24.7182  24.9638  25.1354  25.6072

          k =-0.1667 0.2887-0.3069 (  6252 PWs)   bands (ev):

  -131.5839-131.5839 -84.9637 -84.9637 -84.9492 -84.9492 -84.7342 -84.7342
   -84.7220 -84.7220 -84.5341 -84.5341 -73.4624 -73.4624 -73.4513 -73.4513
   -70.3510 -70.3510 -45.3612 -45.3612 -45.2486 -45.2486 -45.2204 -45.2204
   -45.1497 -45.1497 -45.0789 -45.0789 -45.0592 -45.0592 -45.0158 -45.0158
   -44.9885 -44.9885 -44.9234 -44.9234 -44.9019 -44.9019 -44.8860 -44.8860
   -44.8810 -44.8810 -44.8221 -44.8221 -44.7273 -44.7273 -44.5581 -44.5581
   -38.5258 -38.5258 -29.6567 -29.6567 -22.3559 -22.3559 -22.3492 -22.3492
   -14.8778 -14.8778 -14.7873 -14.7873 -14.7571 -14.7571  -6.0507  -6.0507
    -4.5567  -4.5567  -4.4983  -4.4983   0.4750   0.4750   0.4961   0.4961
     3.2861   3.2861  11.6550  11.6550  13.9322  13.9322  14.2116  14.2116
    14.4122  14.4122  14.7059  14.7059  14.9393  14.9393  15.0959  15.0959
    15.2592  15.2592  15.3214  15.3214  15.5511  15.5511  15.7229  15.7229
    16.0823  16.0823  16.1834  16.1834  16.3102  16.3102  16.4138  16.4138
    16.5475  16.5475  16.6215  16.6215  16.7103  16.7103  16.8257  16.8257
    16.9085  16.9085  16.9639  16.9639  17.0983  17.0983  17.1212  17.1212
    17.2961  17.2961  17.3814  17.3814  17.5980  17.5980  17.6922  17.6922
    17.8255  17.8255  17.9197  17.9197  19.2878  19.2878  19.4322  19.4322
    19.5768  19.5768  19.7932  19.7932  20.1199  20.1199  20.2952  20.2952
    20.5459  20.5459  21.5461  21.5461  21.7998  21.7998  22.6447  22.6447
    23.0947  23.0947  25.0672  25.0672  25.6862  25.6862

          k = 0.3333 0.0000-0.3069 (  6252 PWs)   bands (ev):

  -131.5835-131.5835 -84.9637 -84.9637 -84.9493 -84.9493 -84.7350 -84.7350
   -84.7212 -84.7212 -84.5341 -84.5341 -73.4652 -73.4652 -73.4556 -73.4556
   -70.3457 -70.3457 -45.3616 -45.3616 -45.2483 -45.2483 -45.2148 -45.2148
   -45.1545 -45.1545 -45.0832 -45.0832 -45.0573 -45.0573 -45.0184 -45.0184
   -44.9862 -44.9862 -44.9359 -44.9359 -44.9005 -44.9005 -44.8940 -44.8940
   -44.8818 -44.8818 -44.8056 -44.8056 -44.7246 -44.7246 -44.5553 -44.5553
   -38.5258 -38.5258 -29.6493 -29.6493 -22.3555 -22.3555 -22.3504 -22.3504
   -14.8795 -14.8795 -14.7849 -14.7849 -14.7578 -14.7578  -6.0491  -6.0491
    -4.5554  -4.5554  -4.4983  -4.4983   0.4544   0.4544   0.4892   0.4892
     3.3027   3.3027  11.6094  11.6094  13.9141  13.9141  14.2295  14.2295
    14.3570  14.3570  14.6982  14.6982  14.9692  14.9692  15.0915  15.0915
    15.2105  15.2105  15.3916  15.3916  15.5501  15.5501  15.7669  15.7669
    15.9868  15.9868  16.1844  16.1844  16.2857  16.2857  16.4380  16.4380
    16.5040  16.5040  16.6295  16.6295  16.7206  16.7206  16.8652  16.8652
    16.9949  16.9949  17.0471  17.0471  17.1655  17.1655  17.1958  17.1958
    17.3788  17.3788  17.4770  17.4770  17.5801  17.5801  17.7220  17.7220
    17.9095  17.9095  18.0713  18.0713  19.0110  19.0110  19.2928  19.2928
    19.6784  19.6784  19.7976  19.7976  19.9896  19.9896  20.2108  20.2108
    20.5756  20.5756  21.4784  21.4784  22.1696  22.1696  22.2792  22.2792
    22.6879  22.6879  25.0121  25.0121  25.4617  25.4617

          k =-0.3333 0.3849 0.0000 (  6247 PWs)   bands (ev):

  -131.5855-131.5827 -84.9638 -84.9635 -84.9493 -84.9493 -84.7338 -84.7336
   -84.7225 -84.7224 -84.5342 -84.5341 -73.4738 -73.4583 -73.4565 -73.4530
   -70.3544 -70.3466 -45.3618 -45.3603 -45.2532 -45.2511 -45.2190 -45.2118
   -45.1535 -45.1454 -45.0815 -45.0738 -45.0632 -45.0500 -45.0229 -45.0041
   -44.9937 -44.9648 -44.9563 -44.9166 -44.9162 -44.9007 -44.8811 -44.8793
   -44.8748 -44.8634 -44.8367 -44.8289 -44.7328 -44.7326 -44.5584 -44.5564
   -38.5255 -38.5247 -29.6574 -29.6511 -22.3542 -22.3528 -22.3507 -22.3497
   -14.8812 -14.8779 -14.7906 -14.7888 -14.7616 -14.7541  -6.0601  -6.0441
    -4.5662  -4.5484  -4.5079  -4.4879   0.4488   0.4674   0.4816   0.5077
     3.2341   3.3151  11.9989  13.1159  13.1917  13.6868  13.9183  14.3283
    14.3511  14.6074  14.8657  14.9861  15.1003  15.1904  15.2635  15.2887
    15.4622  15.4647  15.5269  15.5763  15.6087  15.7342  15.7407  15.8205
    15.8821  15.9110  15.9971  16.0397  16.0954  16.1094  16.1598  16.1706
    16.2390  16.3079  16.4027  16.4507  16.5453  16.5742  16.7067  16.7474
    16.7481  16.8561  16.8728  16.9192  17.0273  17.0407  17.0662  17.1058
    17.1675  17.2210  17.3016  17.3168  17.3937  17.4379  17.4874  17.5844
    17.6039  17.8645  18.0364  18.2600  18.5037  18.9219  19.0514  19.5020
    19.5862  19.6309  19.7300  19.7882  20.0665  20.1752  20.1903  20.4639
    20.6170  20.6398  20.8450  21.4493  21.6049  22.0577  23.3059  23.6890
    24.0553  24.1941  25.2113  25.2824  25.9492  26.5251

          k = 0.5000 0.0962 0.0000 (  6247 PWs)   bands (ev):

  -131.5848-131.5822 -84.9630 -84.9627 -84.9501 -84.9501 -84.7351 -84.7348
   -84.7212 -84.7211 -84.5342 -84.5341 -73.4755 -73.4633 -73.4480 -73.4454
   -70.3481 -70.3420 -45.3564 -45.3536 -45.2526 -45.2461 -45.2152 -45.2090
   -45.1583 -45.1527 -45.0904 -45.0730 -45.0671 -45.0441 -45.0311 -45.0200
   -44.9982 -44.9792 -44.9710 -44.9244 -44.9091 -44.9037 -44.8988 -44.8886
   -44.8718 -44.8699 -44.8050 -44.8004 -44.7254 -44.7209 -44.5541 -44.5536
   -38.5254 -38.5247 -29.6491 -29.6481 -22.3563 -22.3538 -22.3515 -22.3493
   -14.8833 -14.8804 -14.7871 -14.7852 -14.7628 -14.7551  -6.0489  -6.0427
    -4.5627  -4.5486  -4.5012  -4.4882   0.4305   0.4390   0.4393   0.5087
     3.2599   3.3226  11.8879  12.8897  13.3417  13.7359  14.0834  14.1763
    14.3001  14.7724  14.7880  15.0046  15.0853  15.1330  15.2637  15.2912
    15.4043  15.4526  15.4835  15.4891  15.5790  15.6831  15.7543  15.7602
    15.8125  15.8918  15.9843  15.9896  16.0825  16.1130  16.1391  16.1552
    16.2257  16.2962  16.3667  16.4597  16.5597  16.6087  16.6979  16.8897
    16.9127  16.9850  17.0075  17.0495  17.0522  17.0993  17.1440  17.1938
    17.2069  17.3225  17.4136  17.4807  17.5282  17.6313  17.6867  17.7449
    17.7924  17.9384  18.0449  18.0617  18.4945  18.8192  19.1124  19.3864
    19.6260  19.6643  19.7554  19.8180  19.8458  19.9193  20.0141  20.3001
    20.5928  20.6095  20.9262  21.7289  22.0262  22.2410  22.5120  22.9955
    23.6129  24.0799  24.3925  24.8318  25.1808  26.0905

          k =-0.3333-0.3849 0.0000 (  6247 PWs)   bands (ev):

  -131.5844-131.5825 -84.9625 -84.9623 -84.9506 -84.9506 -84.7351 -84.7348
   -84.7212 -84.7212 -84.5342 -84.5341 -73.4753 -73.4602 -73.4514 -73.4449
   -70.3517 -70.3386 -45.3540 -45.3507 -45.2523 -45.2455 -45.2164 -45.2096
   -45.1641 -45.1513 -45.0939 -45.0727 -45.0606 -45.0406 -45.0347 -45.0214
   -45.0021 -44.9881 -44.9703 -44.9169 -44.9110 -44.9064 -44.8949 -44.8835
   -44.8745 -44.8690 -44.8051 -44.8020 -44.7258 -44.7180 -44.5549 -44.5536
   -38.5254 -38.5247 -29.6525 -29.6446 -22.3570 -22.3533 -22.3508 -22.3500
   -14.8833 -14.8803 -14.7871 -14.7852 -14.7628 -14.7551  -6.0474  -6.0448
    -4.5630  -4.5482  -4.4970  -4.4929   0.4300   0.4353   0.4417   0.5060
     3.2611   3.3181  11.9030  12.8528  13.4167  13.7627  13.9700  14.1252
    14.3651  14.7175  14.8569  15.0428  15.1029  15.1245  15.2634  15.3318
    15.3650  15.4712  15.5116  15.5420  15.6141  15.6178  15.6894  15.7080
    15.7713  15.8061  15.8964  15.9321  16.0069  16.0980  16.1223  16.1720
    16.2293  16.2749  16.4245  16.5492  16.5892  16.6914  16.6984  16.8588
    16.8999  16.9872  17.0109  17.0384  17.0983  17.1177  17.1354  17.2152
    17.2602  17.3001  17.3985  17.5136  17.5619  17.6361  17.6770  17.7748
    17.8261  17.9771  18.0126  18.1230  18.6315  18.7672  19.2719  19.2937
    19.4536  19.7315  19.7694  19.8298  19.8481  19.8875  19.9442  20.2783
    20.5083  20.6373  20.9375  21.8315  22.1346  22.1489  22.4845  23.0599
    23.5595  23.8341  24.3595  25.0501  25.5016  26.2452

          k = 0.5000-0.0962 0.0000 (  6247 PWs)   bands (ev):

  -131.5847-131.5832 -84.9638 -84.9635 -84.9493 -84.9493 -84.7343 -84.7340
   -84.7221 -84.7219 -84.5342 -84.5341 -73.4751 -73.4560 -73.4531 -73.4511
   -70.3537 -70.3479 -45.3620 -45.3610 -45.2527 -45.2488 -45.2153 -45.2141
   -45.1539 -45.1465 -45.0827 -45.0758 -45.0688 -45.0491 -45.0253 -44.9984
   -44.9883 -44.9696 -44.9616 -44.9171 -44.9122 -44.8927 -44.8900 -44.8881
   -44.8788 -44.8665 -44.8262 -44.8210 -44.7338 -44.7311 -44.5581 -44.5546
   -38.5255 -38.5247 -29.6590 -29.6500 -22.3561 -22.3534 -22.3516 -22.3491
   -14.8819 -14.8789 -14.7895 -14.7875 -14.7620 -14.7545  -6.0552  -6.0438
    -4.5653  -4.5465  -4.5042  -4.4897   0.4429   0.4565   0.4686   0.5104
     3.2437   3.3177  11.9145  13.1967  13.2115  13.5143  14.1406  14.2846
    14.3165  14.6119  14.8200  14.9494  15.1270  15.1573  15.2741  15.3313
    15.4017  15.4722  15.4990  15.5545  15.5800  15.7130  15.7482  15.8143
    15.8376  15.9634  16.0369  16.0638  16.0989  16.1246  16.1591  16.2114
    16.3179  16.3695  16.3929  16.4280  16.4284  16.6731  16.6789  16.7508
    16.8549  16.8811  16.9020  16.9490  16.9798  17.0134  17.1011  17.1227
    17.1624  17.2498  17.3349  17.4120  17.4426  17.4568  17.5541  17.6601
    17.7413  17.7675  17.9680  18.1539  18.5127  18.9267  18.9853  19.4634
    19.6159  19.6170  19.6937  19.7908  19.9457  20.1130  20.1688  20.4475
    20.5714  20.6163  20.8632  21.5191  21.9352  22.0191  22.8550  23.6235
    23.8071  24.5056  25.2021  25.3229  25.3566  25.7812

          k =-0.1667 0.4811 0.0000 (  6247 PWs)   bands (ev):

  -131.5848-131.5834 -84.9630 -84.9627 -84.9501 -84.9501 -84.7338 -84.7336
   -84.7225 -84.7224 -84.5342 -84.5341 -73.4737 -73.4592 -73.4570 -73.4493
   -70.3534 -70.3479 -45.3550 -45.3534 -45.2534 -45.2487 -45.2256 -45.2141
   -45.1507 -45.1472 -45.0847 -45.0725 -45.0617 -45.0429 -45.0212 -45.0186
   -45.0050 -44.9889 -44.9425 -44.9203 -44.9089 -44.8918 -44.8867 -44.8838
   -44.8780 -44.8647 -44.8327 -44.8266 -44.7281 -44.7233 -44.5583 -44.5555
   -38.5255 -38.5247 -29.6561 -29.6528 -22.3540 -22.3526 -22.3507 -22.3494
   -14.8811 -14.8777 -14.7906 -14.7888 -14.7616 -14.7542  -6.0578  -6.0467
    -4.5671  -4.5463  -4.5046  -4.4926   0.4582   0.4657   0.4755   0.4978
     3.2365   3.3059  12.0257  12.9976  13.2924  13.7484  14.0837  14.1179
    14.3373  14.6625  14.8533  14.9434  15.0305  15.1548  15.2745  15.3741
    15.3823  15.4626  15.5789  15.6071  15.6206  15.6757  15.7317  15.7822
    15.8492  15.8760  15.8906  15.9185  15.9947  16.0073  16.1566  16.2106
    16.2934  16.3249  16.4049  16.4313  16.5599  16.6134  16.7057  16.7638
    16.8173  16.9095  16.9233  16.9519  16.9591  17.0316  17.1062  17.1485
    17.2296  17.2626  17.2817  17.3672  17.4060  17.4422  17.5712  17.6321
    17.6732  17.9253  18.0526  18.1141  18.6422  19.0571  19.1546  19.3984
    19.5400  19.6118  19.7463  19.7933  19.9972  20.0759  20.2193  20.4682
    20.4880  20.7318  20.7661  21.3605  21.8137  22.2357  23.5332  23.5499
    23.8401  24.5802  25.1498  25.2110  25.4194  26.2309

          k =-0.3333 0.3849 0.1535 (  6255 PWs)   bands (ev):

  -131.5853-131.5842 -84.9638 -84.9636 -84.9493 -84.9493 -84.7338 -84.7336
   -84.7225 -84.7224 -84.5342 -84.5341 -73.4718 -73.4647 -73.4568 -73.4532
   -70.3546 -70.3528 -45.3643 -45.3617 -45.2538 -45.2489 -45.2196 -45.2190
   -45.1533 -45.1501 -45.0814 -45.0801 -45.0590 -45.0518 -45.0247 -45.0126
   -44.9896 -44.9738 -44.9524 -44.9228 -44.9129 -44.8947 -44.8834 -44.8802
   -44.8762 -44.8716 -44.8382 -44.8342 -44.7380 -44.7333 -44.5622 -44.5573
   -38.5254 -38.5248 -29.6577 -29.6556 -22.3565 -22.3542 -22.3500 -22.3488
   -14.8807 -14.8784 -14.7904 -14.7890 -14.7605 -14.7553  -6.0587  -6.0491
    -4.5663  -4.5519  -4.5038  -4.4935   0.4546   0.4709   0.4785   0.5000
     3.2446   3.3011  12.1021  12.8404  13.2018  13.6232  14.0867  14.3506
    14.3862  14.7101  14.8403  15.0110  15.1226  15.1806  15.2401  15.3298
    15.3682  15.4610  15.5347  15.5637  15.5809  15.7029  15.7429  15.7956
    15.8567  15.8677  15.9850  16.0934  16.1036  16.1815  16.1962  16.2596
    16.3151  16.3231  16.4090  16.4663  16.5442  16.6270  16.6621  16.6956
    16.7594  16.8231  16.8547  16.8720  16.9080  16.9784  17.0125  17.0794
    17.1565  17.2152  17.3003  17.3281  17.4488  17.4672  17.5317  17.5822
    17.6450  17.7738  17.9180  18.1224  18.7610  19.0018  19.1100  19.4614
    19.4866  19.5995  19.7262  19.8081  20.0702  20.1563  20.2288  20.3779
    20.6361  20.7499  21.1562  21.4781  21.6963  21.9850  22.7726  23.4094
    23.8857  24.0142  24.9195  25.8396  26.0388  26.6244

          k = 0.5000 0.0962 0.1535 (  6255 PWs)   bands (ev):

  -131.5846-131.5830 -84.9629 -84.9627 -84.9502 -84.9501 -84.7351 -84.7349
   -84.7212 -84.7212 -84.5342 -84.5341 -73.4729 -73.4647 -73.4608 -73.4540
   -70.3454 -70.3448 -45.3591 -45.3571 -45.2547 -45.2507 -45.2146 -45.2098
   -45.1582 -45.1561 -45.0923 -45.0816 -45.0593 -45.0447 -45.0284 -45.0181
   -45.0018 -44.9913 -44.9631 -44.9390 -44.9085 -44.9014 -44.8953 -44.8917
   -44.8816 -44.8753 -44.8067 -44.7990 -44.7263 -44.7221 -44.5580 -44.5548
   -38.5253 -38.5248 -29.6477 -29.6464 -22.3560 -22.3544 -22.3510 -22.3503
   -14.8830 -14.8808 -14.7868 -14.7855 -14.7617 -14.7563  -6.0508  -6.0465
    -4.5631  -4.5506  -4.4992  -4.4947   0.4218   0.4323   0.4590   0.5019
     3.2700   3.3139  11.9991  12.7244  13.2356  13.7168  14.0592  14.3049
    14.3597  14.7226  14.9159  15.0080  15.0706  15.1166  15.2661  15.2891
    15.3946  15.4491  15.4902  15.4939  15.5782  15.6146  15.7180  15.7969
    15.8108  15.9303  15.9653  15.9782  16.0534  16.1045  16.1504  16.2086
    16.2313  16.3121  16.3992  16.4735  16.5748  16.5963  16.7242  16.8097
    16.9315  16.9430  17.0132  17.0234  17.0572  17.1198  17.1337  17.1974
    17.2417  17.3356  17.4041  17.4504  17.5093  17.5634  17.6210  17.7349
    17.9132  17.9252  18.0042  18.1074  18.5488  18.8129  19.1318  19.4115
    19.5222  19.6143  19.7502  19.8224  19.8710  19.9296  20.0620  20.2046
    20.6626  20.8110  21.1044  21.7422  21.8740  22.2136  22.4077  22.6220
    23.2421  23.6969  24.4640  25.1990  25.6082  26.2491

          k =-0.3333-0.3849-0.1535 (  6255 PWs)   bands (ev):

  -131.5844-131.5831 -84.9625 -84.9623 -84.9506 -84.9506 -84.7351 -84.7349
   -84.7212 -84.7212 -84.5342 -84.5341 -73.4740 -73.4649 -73.4623 -73.4508
   -70.3472 -70.3415 -45.3575 -45.3526 -45.2553 -45.2490 -45.2144 -45.2121
   -45.1618 -45.1558 -45.0898 -45.0795 -45.0566 -45.0393 -45.0334 -45.0291
   -45.0118 -44.9992 -44.9558 -44.9313 -44.9056 -44.9039 -44.8930 -44.8895
   -44.8843 -44.8743 -44.8065 -44.8007 -44.7240 -44.7219 -44.5574 -44.5555
   -38.5253 -38.5248 -29.6491 -29.6443 -22.3566 -22.3540 -22.3508 -22.3499
   -14.8829 -14.8808 -14.7868 -14.7855 -14.7617 -14.7563  -6.0497  -6.0463
    -4.5625  -4.5502  -4.4984  -4.4949   0.4209   0.4296   0.4608   0.4999
     3.2722   3.3094  12.0181  12.7361  13.2263  13.6213  14.0844  14.3234
    14.4902  14.5973  14.9250  15.0161  15.0655  15.1815  15.2499  15.3262
    15.3980  15.4632  15.4893  15.5314  15.5815  15.6045  15.6965  15.7097
    15.7730  15.8183  15.8957  15.9889  16.0137  16.0559  16.1106  16.1410
    16.2357  16.3412  16.4351  16.5223  16.5873  16.6429  16.7438  16.8034
    16.9094  16.9595  17.0074  17.0611  17.1012  17.1678  17.1818  17.2075
    17.2371  17.3313  17.4167  17.4505  17.5266  17.6235  17.6580  17.7509
    17.8740  17.9396  18.0458  18.1191  18.6757  18.7734  19.2288  19.3616
    19.3884  19.6372  19.7635  19.7986  19.8724  19.9158  20.0309  20.2039
    20.4991  20.7788  21.0863  21.6495  22.1698  22.2270  22.4817  22.6446
    23.2441  23.7889  24.2472  25.1064  25.9049  26.3200

          k = 0.5000-0.0962-0.1535 (  6255 PWs)   bands (ev):

  -131.5852-131.5841 -84.9638 -84.9636 -84.9493 -84.9493 -84.7343 -84.7341
   -84.7221 -84.7219 -84.5342 -84.5341 -73.4708 -73.4640 -73.4576 -73.4488
   -70.3528 -70.3510 -45.3641 -45.3618 -45.2546 -45.2490 -45.2192 -45.2177
   -45.1514 -45.1512 -45.0830 -45.0782 -45.0643 -45.0506 -45.0248 -45.0112
   -44.9857 -44.9712 -44.9581 -44.9303 -44.9112 -44.8977 -44.8934 -44.8844
   -44.8789 -44.8696 -44.8275 -44.8229 -44.7376 -44.7321 -44.5609 -44.5586
   -38.5254 -38.5248 -29.6576 -29.6529 -22.3558 -22.3548 -22.3507 -22.3499
   -14.8815 -14.8793 -14.7892 -14.7878 -14.7609 -14.7556  -6.0579  -6.0427
    -4.5653  -4.5472  -4.5041  -4.4913   0.4452   0.4637   0.4661   0.5028
     3.2527   3.3070  12.0231  12.7959  13.2813  13.6795  14.0784  14.3265
    14.3471  14.7164  14.8365  14.9450  15.1504  15.1980  15.2618  15.3128
    15.3712  15.4469  15.5013  15.5324  15.5782  15.6508  15.7391  15.8172
    15.8941  15.9338  16.0035  16.0572  16.1477  16.1667  16.1897  16.2069
    16.2712  16.3580  16.4066  16.4543  16.5659  16.6303  16.6668  16.7202
    16.7830  16.8577  16.8716  16.9253  16.9625  17.0247  17.0614  17.1491
    17.2140  17.2676  17.3461  17.3839  17.4604  17.5056  17.6052  17.6431
    17.6515  17.7376  17.8845  18.0439  18.6832  18.9647  19.0033  19.3810
    19.5527  19.5863  19.7186  19.7837  19.9822  20.0980  20.2217  20.4044
    20.6419  20.7480  21.1221  21.5797  21.9241  21.9908  22.3638  23.4997
    23.7215  23.8871  24.9199  25.3087  25.8201  26.3296

          k =-0.1667 0.4811-0.1535 (  6255 PWs)   bands (ev):

  -131.5858-131.5836 -84.9630 -84.9628 -84.9501 -84.9501 -84.7338 -84.7337
   -84.7225 -84.7224 -84.5342 -84.5341 -73.4719 -73.4625 -73.4570 -73.4515
   -70.3561 -70.3525 -45.3588 -45.3568 -45.2562 -45.2514 -45.2221 -45.2184
   -45.1514 -45.1472 -45.0842 -45.0787 -45.0585 -45.0491 -45.0200 -45.0164
   -45.0077 -44.9956 -44.9427 -44.9220 -44.9084 -44.8934 -44.8894 -44.8872
   -44.8811 -44.8716 -44.8321 -44.8286 -44.7286 -44.7246 -44.5613 -44.5575
   -38.5254 -38.5248 -29.6589 -29.6561 -22.3562 -22.3545 -22.3500 -22.3490
   -14.8806 -14.8782 -14.7904 -14.7890 -14.7605 -14.7553  -6.0580  -6.0483
    -4.5645  -4.5517  -4.5046  -4.4925   0.4562   0.4700   0.4738   0.4951
     3.2439   3.2944  12.1341  12.9088  13.0911  13.6176  14.1643  14.3088
    14.4238  14.7301  14.9174  14.9352  15.0841  15.1150  15.2486  15.3220
    15.3665  15.4430  15.4981  15.5697  15.5954  15.6751  15.7088  15.7506
    15.7790  15.8684  15.9383  16.0115  16.0324  16.0696  16.1869  16.2465
    16.2988  16.3731  16.4264  16.4823  16.5326  16.6186  16.6774  16.7285
    16.7801  16.8786  16.8884  16.9162  16.9621  17.0429  17.0529  17.1211
    17.1723  17.2729  17.2792  17.3725  17.4358  17.4999  17.5446  17.6312
    17.7238  17.8057  17.9917  18.1481  18.7929  19.0559  19.2087  19.3696
    19.4856  19.5997  19.7357  19.7818  19.9939  20.0202  20.2376  20.3039
    20.4503  20.7712  21.1476  21.4203  21.9871  22.1936  22.9680  23.5002
    23.6747  23.9380  25.1339  25.5108  25.8830  26.3277

          k =-0.3333 0.3849-0.3069 (  6250 PWs)   bands (ev):

  -131.5846-131.5846 -84.9637 -84.9637 -84.9493 -84.9493 -84.7337 -84.7337
   -84.7225 -84.7225 -84.5342 -84.5342 -73.4636 -73.4636 -73.4542 -73.4542
   -70.3543 -70.3543 -45.3601 -45.3601 -45.2471 -45.2471 -45.2205 -45.2205
   -45.1507 -45.1507 -45.0802 -45.0802 -45.0543 -45.0543 -45.0183 -45.0183
   -44.9784 -44.9784 -44.9343 -44.9343 -44.8951 -44.8951 -44.8847 -44.8847
   -44.8769 -44.8769 -44.8355 -44.8355 -44.7364 -44.7364 -44.5591 -44.5591
   -38.5251 -38.5251 -29.6582 -29.6582 -22.3554 -22.3554 -22.3490 -22.3490
   -14.8795 -14.8795 -14.7897 -14.7897 -14.7579 -14.7579  -6.0516  -6.0516
    -4.5564  -4.5564  -4.4977  -4.4977   0.4690   0.4690   0.4831   0.4831
     3.2727   3.2727  12.3991  12.3991  13.3986  13.3986  14.2199  14.2199
    14.6752  14.6752  14.9303  14.9303  15.1776  15.1776  15.2487  15.2487
    15.4022  15.4022  15.5707  15.5707  15.6129  15.6129  15.7577  15.7577
    15.8374  15.8374  16.0458  16.0458  16.1859  16.1859  16.2763  16.2763
    16.4172  16.4172  16.5076  16.5076  16.5308  16.5308  16.6568  16.6568
    16.7350  16.7350  16.8159  16.8159  16.8763  16.8763  17.0088  17.0088
    17.1765  17.1765  17.3335  17.3335  17.4530  17.4530  17.6126  17.6126
    17.7409  17.7409  17.8517  17.8517  19.0548  19.0548  19.2626  19.2626
    19.4849  19.4849  19.7687  19.7687  20.1276  20.1276  20.3178  20.3178
    20.7344  20.7344  21.5633  21.5633  21.8204  21.8204  22.6086  22.6086
    23.7539  23.7539  25.6451  25.6451  26.2451  26.2451

          k = 0.5000 0.0962-0.3069 (  6250 PWs)   bands (ev):

  -131.5830-131.5830 -84.9628 -84.9628 -84.9501 -84.9501 -84.7350 -84.7350
   -84.7212 -84.7212 -84.5341 -84.5341 -73.4642 -73.4642 -73.4601 -73.4601
   -70.3416 -70.3416 -45.3560 -45.3560 -45.2502 -45.2502 -45.2096 -45.2096
   -45.1573 -45.1573 -45.0857 -45.0857 -45.0501 -45.0501 -45.0207 -45.0207
   -45.0003 -45.0003 -44.9503 -44.9503 -44.9033 -44.9033 -44.8929 -44.8929
   -44.8749 -44.8749 -44.8025 -44.8025 -44.7228 -44.7228 -44.5544 -44.5544
   -38.5251 -38.5251 -29.6443 -29.6443 -22.3553 -22.3553 -22.3511 -22.3511
   -14.8819 -14.8819 -14.7861 -14.7861 -14.7590 -14.7590  -6.0461  -6.0461
    -4.5549  -4.5549  -4.4957  -4.4957   0.4233   0.4233   0.4846   0.4846
     3.2944   3.2944  12.3126  12.3126  13.4188  13.4188  14.2043  14.2043
    14.6262  14.6262  15.0007  15.0007  15.0820  15.0820  15.2912  15.2912
    15.3852  15.3852  15.4623  15.4623  15.6537  15.6537  15.7289  15.7289
    15.8826  15.8826  15.9723  15.9723  16.0593  16.0593  16.2047  16.2047
    16.3194  16.3194  16.4130  16.4130  16.6280  16.6280  16.7714  16.7714
    16.8557  16.8557  17.0327  17.0327  17.0598  17.0598  17.1841  17.1841
    17.3438  17.3438  17.4026  17.4026  17.5024  17.5024  17.6864  17.6864
    17.8682  17.8682  18.0745  18.0745  18.7307  18.7307  19.2786  19.2786
    19.5042  19.5042  19.7991  19.7991  19.8993  19.8993  20.1402  20.1402
    20.9281  20.9281  21.3299  21.3299  22.0616  22.0616  22.3735  22.3735
    23.0984  23.0984  24.9534  24.9534  26.1258  26.1258

          k =-0.3333-0.3849 0.3069 (  6250 PWs)   bands (ev):

  -131.5830-131.5830 -84.9624 -84.9624 -84.9506 -84.9506 -84.7350 -84.7350
   -84.7212 -84.7212 -84.5341 -84.5341 -73.4653 -73.4653 -73.4591 -73.4591
   -70.3414 -70.3414 -45.3536 -45.3536 -45.2503 -45.2503 -45.2106 -45.2106
   -45.1574 -45.1574 -45.0839 -45.0839 -45.0408 -45.0408 -45.0309 -45.0309
   -45.0103 -45.0103 -44.9450 -44.9450 -44.9048 -44.9048 -44.8900 -44.8900
   -44.8773 -44.8773 -44.8016 -44.8016 -44.7207 -44.7207 -44.5537 -44.5537
   -38.5251 -38.5251 -29.6443 -29.6443 -22.3553 -22.3553 -22.3510 -22.3510
   -14.8818 -14.8818 -14.7861 -14.7861 -14.7590 -14.7590  -6.0455  -6.0455
    -4.5544  -4.5544  -4.4952  -4.4952   0.4212   0.4212   0.4844   0.4844
     3.2930   3.2930  12.3413  12.3413  13.3427  13.3427  14.2614  14.2614
    14.6491  14.6491  14.9403  14.9403  15.1523  15.1523  15.2619  15.2619
    15.4124  15.4124  15.4838  15.4838  15.6385  15.6385  15.7215  15.7215
    15.7988  15.7988  15.9342  15.9342  16.0115  16.0115  16.1632  16.1632
    16.2866  16.2866  16.4671  16.4671  16.6021  16.6021  16.7884  16.7884
    16.9009  16.9009  17.0670  17.0670  17.1185  17.1185  17.2092  17.2092
    17.2982  17.2982  17.4390  17.4390  17.5538  17.5538  17.7042  17.7042
    17.9090  17.9090  18.0688  18.0688  18.7601  18.7601  19.2751  19.2751
    19.4589  19.4589  19.7944  19.7944  19.9155  19.9155  20.1095  20.1095
    20.6266  20.6266  21.5364  21.5364  22.0862  22.0862  22.5400  22.5400
    23.1107  23.1107  24.7883  24.7883  26.3784  26.3784

          k = 0.5000-0.0962 0.3069 (  6250 PWs)   bands (ev):

  -131.5842-131.5842 -84.9637 -84.9637 -84.9493 -84.9493 -84.7342 -84.7342
   -84.7220 -84.7220 -84.5342 -84.5342 -73.4631 -73.4631 -73.4548 -73.4548
   -70.3522 -70.3522 -45.3599 -45.3599 -45.2482 -45.2482 -45.2177 -45.2177
   -45.1527 -45.1527 -45.0784 -45.0784 -45.0558 -45.0558 -45.0211 -45.0211
   -44.9739 -44.9739 -44.9448 -44.9448 -44.8980 -44.8980 -44.8852 -44.8852
   -44.8776 -44.8776 -44.8253 -44.8253 -44.7352 -44.7352 -44.5578 -44.5578
   -38.5251 -38.5251 -29.6557 -29.6557 -22.3559 -22.3559 -22.3506 -22.3506
   -14.8803 -14.8803 -14.7885 -14.7885 -14.7582 -14.7582  -6.0479  -6.0479
    -4.5539  -4.5539  -4.4963  -4.4963   0.4541   0.4541   0.4845   0.4845
     3.2805   3.2805  12.3324  12.3324  13.4877  13.4877  14.1897  14.1897
    14.6248  14.6248  14.9170  14.9170  15.2193  15.2193  15.2748  15.2748
    15.3542  15.3542  15.5604  15.5604  15.5755  15.5755  15.7905  15.7905
    15.9007  15.9007  15.9899  15.9899  16.1756  16.1756  16.2643  16.2643
    16.3262  16.3262  16.4675  16.4675  16.5700  16.5700  16.7076  16.7076
    16.7806  16.7806  16.8780  16.8780  16.9308  16.9308  17.1352  17.1352
    17.2768  17.2768  17.3701  17.3701  17.4731  17.4731  17.5952  17.5952
    17.7521  17.7521  17.8297  17.8297  18.9018  18.9018  19.1887  19.1887
    19.5177  19.5177  19.7598  19.7598  20.0404  20.0404  20.3443  20.3443
    20.8693  20.8693  21.3744  21.3744  21.9314  21.9314  22.5744  22.5744
    23.6297  23.6297  25.1300  25.1300  26.4012  26.4012

          k =-0.1667 0.4811 0.3069 (  6250 PWs)   bands (ev):

  -131.5843-131.5843 -84.9629 -84.9629 -84.9501 -84.9501 -84.7337 -84.7337
   -84.7224 -84.7224 -84.5342 -84.5342 -73.4631 -73.4631 -73.4523 -73.4523
   -70.3547 -70.3547 -45.3552 -45.3552 -45.2519 -45.2519 -45.2196 -45.2196
   -45.1460 -45.1460 -45.0799 -45.0799 -45.0532 -45.0532 -45.0138 -45.0138
   -45.0049 -45.0049 -44.9290 -44.9290 -44.8975 -44.8975 -44.8863 -44.8863
   -44.8808 -44.8808 -44.8284 -44.8284 -44.7262 -44.7262 -44.5587 -44.5587
   -38.5251 -38.5251 -29.6589 -29.6589 -22.3555 -22.3555 -22.3494 -22.3494
   -14.8794 -14.8794 -14.7897 -14.7897 -14.7579 -14.7579  -6.0498  -6.0498
    -4.5546  -4.5546  -4.4972  -4.4972   0.4608   0.4608   0.4871   0.4871
     3.2691   3.2691  12.4457  12.4457  13.3154  13.3154  14.2568  14.2568
    14.7584  14.7584  14.9690  14.9690  15.0935  15.0935  15.2072  15.2072
    15.4069  15.4069  15.4899  15.4899  15.6005  15.6005  15.7395  15.7395
    15.8114  15.8114  15.9975  15.9975  16.1136  16.1136  16.2482  16.2482
    16.3775  16.3775  16.4666  16.4666  16.5384  16.5384  16.7051  16.7051
    16.8252  16.8252  16.8717  16.8717  16.9747  16.9747  17.0328  17.0328
    17.1719  17.1719  17.3589  17.3589  17.4966  17.4966  17.6038  17.6038
    17.7860  17.7860  17.9818  17.9818  19.0828  19.0828  19.2449  19.2449
    19.4953  19.4953  19.7403  19.7403  20.0420  20.0420  20.2189  20.2189
    20.5001  20.5001  21.7418  21.7418  22.1030  22.1030  22.7134  22.7134
    23.5878  23.5878  25.5604  25.5604  26.1798  26.1798

     the Fermi energy is    18.5419 ev

!    total energy              =   -4513.44208957 Ry
     estimated scf accuracy    <          1.0E-09 Ry
     smearing contrib. (-TS)   =       0.00963101 Ry
     internal energy E=F+TS    =   -4513.45172058 Ry

     The total energy is F=E-TS. E is the sum of the following terms:
     one-electron contribution =   -3041.30685896 Ry
     hartree contribution      =    1661.98283396 Ry
     xc contribution           =    -496.33656014 Ry
     ewald contribution        =   -2637.79113544 Ry

     convergence has been achieved in  29 iterations

     Writing all to output data dir ./outdir/ni3ti_v2.save/ :
     XML data file, charge density, pseudopotentials, collected wavefunctions

     init_run     :    813.07s CPU    468.42s WALL (       1 calls)
     electrons    :  52598.22s CPU  18713.52s WALL (       1 calls)

     Called by init_run:
     wfcinit      :    802.02s CPU    460.72s WALL (       1 calls)
     potinit      :      2.62s CPU      2.29s WALL (       1 calls)
     hinit0       :      3.85s CPU      3.33s WALL (       1 calls)

     Called by electrons:
     c_bands      :  46131.42s CPU  15471.58s WALL (      29 calls)
     sum_band     :   6317.18s CPU   3202.71s WALL (      29 calls)
     v_of_rho     :      6.67s CPU      2.02s WALL (      30 calls)
     newd         :    143.43s CPU     38.26s WALL (      30 calls)
     mix_rho      :      0.79s CPU      0.41s WALL (      29 calls)

     Called by c_bands:
     init_us_2    :    529.78s CPU     49.80s WALL (    3540 calls)
     cegterg      :  44646.76s CPU  15305.94s WALL (    1740 calls)

     Called by *egterg:
     cdiaghg      :   9845.04s CPU    942.62s WALL (    5957 calls)
     h_psi        :  25867.47s CPU  13907.57s WALL (    6017 calls)
     s_psi        :   1369.94s CPU    129.94s WALL (    6017 calls)
     g_psi        :    394.96s CPU     36.57s WALL (    4217 calls)

     Called by h_psi:
     h_psi:calbec :   2008.23s CPU    193.90s WALL (    6017 calls)
     vloc_psi     :  22269.41s CPU  13564.74s WALL (    6017 calls)
                                        0.00s GPU  (    6017 calls)
     add_vuspsi   :   1303.47s CPU    121.89s WALL (    6017 calls)

     General routines
     calbec       :   2649.70s CPU    256.34s WALL (    7757 calls)
     fft          :      5.46s CPU      2.52s WALL (     388 calls)
     ffts         :      3.72s CPU      2.23s WALL (      59 calls)
     fftw         :  26753.99s CPU  16178.87s WALL ( 1497532 calls)
     interpolate  :      2.60s CPU      2.23s WALL (      30 calls)

     Parallel routines

     PWSCF        :     14h50m CPU      5h19m WALL


   This run was terminated on:   1:38:22  14Jun2026            

=------------------------------------------------------------------------------=
   JOB DONE.
=------------------------------------------------------------------------------=
