
     Program PWSCF v.7.5 starts on 12Jun2026 at 23: 2:25 

     This program is part of the open-source Quantum ESPRESSO suite
     for quantum simulation of materials; please cite
         "P. Giannozzi et al., J. Phys.:Condens. Matter 21 395502 (2009);
         "P. Giannozzi et al., J. Phys.:Condens. Matter 29 465901 (2017);
         "P. Giannozzi et al., J. Chem. Phys. 152 154105 (2020);
          URL http://www.quantum-espresso.org", 
     in publications or presentations arising from this work. More details at
     http://www.quantum-espresso.org/quote

     Parallel version (MPI & OpenMP), running on      12 processor cores
     Number of MPI processes:                 1
     Threads/MPI process:                    12

     MPI processes distributed on     1 nodes
     1552 MiB available memory on the printing compute node when the environment starts

     Reading input from ni3ti_eta.scf.in

     Current dimensions of program PWSCF are:
     Max number of different atomic species (ntypx) = 10
     Max number of k-points (npk) =  40000
     Max angular momentum in pseudopotentials (lmaxx) =  4
     file Ni.pbe-nd-rrkjus.UPF: wavefunction(s)  4S renormalized
     file Ti.pbe-spn-rrkjus_psl.1.0.0.UPF: wavefunction(s)  3S 3D renormalized

     Subspace diagonalization in iterative solution of the eigenvalue problem:
     a serial algorithm will be used


     G-vector sticks info
     --------------------
     sticks:   dense  smooth     PW     G-vecs:    dense   smooth      PW
     Sum        2245    1135    313               141285    50113    7631

     Using Slab Decomposition



     bravais-lattice index     =            4
     lattice parameter (alat)  =       9.5430  a.u.
     unit-cell volume          =    1226.0452 (a.u.)^3
     number of atoms/cell      =           16
     number of atomic types    =            2
     number of electrons       =       168.00
     number of Kohn-Sham states=          101
     kinetic-energy cutoff     =      45.0000  Ry
     charge density cutoff     =     360.0000  Ry
     scf convergence threshold =      1.0E-08
     mixing beta               =       0.4000
     number of iterations used =            8  plain     mixing
     Exchange-correlation= PBE
                           (   1   4   3   4   0   0   0)

     celldm(1)=   9.543000  celldm(2)=   0.000000  celldm(3)=   1.629000
     celldm(4)=   0.000000  celldm(5)=   0.000000  celldm(6)=   0.000000

     crystal axes: (cart. coord. in units of alat)
               a(1) = (   1.000000   0.000000   0.000000 )  
               a(2) = (  -0.500000   0.866025   0.000000 )  
               a(3) = (   0.000000   0.000000   1.629000 )  

     reciprocal axes: (cart. coord. in units 2 pi/alat)
               b(1) = (  1.000000  0.577350 -0.000000 )  
               b(2) = (  0.000000  1.154701  0.000000 )  
               b(3) = (  0.000000 -0.000000  0.613874 )  


     PseudoPot. # 1 for Ni read from file:
     ./pseudo/Ni.pbe-nd-rrkjus.UPF
     MD5 check sum: d71bc9c4c8adef96ad6fe9664ede368e
     Pseudo is Ultrasoft + core correction, Zval = 10.0
     Generated by new atomic code, or converted to UPF format
     Using radial grid of 1203 points,  6 beta functions with: 
                l(1) =   0
                l(2) =   0
                l(3) =   1
                l(4) =   1
                l(5) =   2
                l(6) =   2
     Q(r) pseudized with 0 coefficients 


     PseudoPot. # 2 for Ti read from file:
     ./pseudo/Ti.pbe-spn-rrkjus_psl.1.0.0.UPF
     MD5 check sum: e281089c08e14b8efcf92e44a67ada65
     Pseudo is Ultrasoft + core correction, Zval = 12.0
     Generated using &quot;atomic&quot; code by A. Dal Corso  v.6.2.2
     Using radial grid of 1177 points,  6 beta functions with: 
                l(1) =   0
                l(2) =   0
                l(3) =   1
                l(4) =   1
                l(5) =   2
                l(6) =   2
     Q(r) pseudized with 0 coefficients 


     atomic species   valence    mass     pseudopotential
     Ni               10.00    58.69300     Ni( 1.00)
     Ti               12.00    47.86700     Ti( 1.00)

      4 Sym. Ops., with inversion, found ( 2 have fractional translation)



   Cartesian axes

     site n.     atom                  positions (alat units)
         1        Ti     tau(   1) = (   0.0000000   0.0000000   0.0000000  )
         2        Ti     tau(   2) = (   0.0000000   0.0000000   0.8145000  )
         3        Ti     tau(   3) = (  -0.0000005   0.5773506   0.4072500  )
         4        Ti     tau(   4) = (   0.5000005   0.2886748   1.2217500  )
         5        Ni     tau(   5) = (   0.5000000   0.0000000   0.0000000  )
         6        Ni     tau(   6) = (  -0.2500000   0.4330127   0.0000000  )
         7        Ni     tau(   7) = (   0.2500000   0.4330127   0.0000000  )
         8        Ni     tau(   8) = (   0.5000000   0.0000000   0.8145000  )
         9        Ni     tau(   9) = (  -0.2500000   0.4330127   0.8145000  )
        10        Ni     tau(  10) = (   0.2500000   0.4330127   0.8145000  )
        11        Ni     tau(  11) = (   0.5000000   0.5678511   0.4072500  )
        12        Ni     tau(  12) = (   0.0000000   0.2981743   1.2217500  )
        13        Ni     tau(  13) = (  -0.0696225   0.7169383   0.4072500  )
        14        Ni     tau(  14) = (   0.5696225   0.1490871   1.2217500  )
        15        Ni     tau(  15) = (   0.7417735   0.1490871   0.4072500  )
        16        Ni     tau(  16) = (  -0.2417735   0.7169383   1.2217500  )

     number of k points=    60  Marzari-Vanderbilt smearing, width (Ry)=  0.0200
                       cart. coord. in units 2pi/alat
        k(    1) = (   0.0000000   0.0000000   0.0000000), wk =   0.0138889
        k(    2) = (   0.0000000   0.0000000   0.1534684), wk =   0.0277778
        k(    3) = (   0.0000000   0.0000000  -0.3069368), wk =   0.0138889
        k(    4) = (   0.0000000   0.1924501   0.0000000), wk =   0.0277778
        k(    5) = (   0.0000000   0.1924501   0.1534684), wk =   0.0555556
        k(    6) = (   0.0000000   0.1924501  -0.3069368), wk =   0.0277778
        k(    7) = (   0.0000000   0.3849002   0.0000000), wk =   0.0277778
        k(    8) = (   0.0000000   0.3849002   0.1534684), wk =   0.0555556
        k(    9) = (   0.0000000   0.3849002  -0.3069368), wk =   0.0277778
        k(   10) = (   0.0000000  -0.5773503   0.0000000), wk =   0.0138889
        k(   11) = (   0.0000000  -0.5773503   0.1534684), wk =   0.0277778
        k(   12) = (   0.0000000  -0.5773503  -0.3069368), wk =   0.0138889
        k(   13) = (   0.1666667   0.2886751   0.0000000), wk =   0.0277778
        k(   14) = (   0.1666667   0.2886751   0.1534684), wk =   0.0555556
        k(   15) = (   0.1666667   0.2886751  -0.3069368), wk =   0.0277778
        k(   16) = (   0.1666667   0.4811252   0.0000000), wk =   0.0277778
        k(   17) = (   0.1666667   0.4811252   0.1534684), wk =   0.0555556
        k(   18) = (   0.1666667   0.4811252  -0.3069368), wk =   0.0277778
        k(   19) = (   0.3333333   0.5773503   0.0000000), wk =   0.0277778
        k(   20) = (   0.3333333   0.5773503   0.1534684), wk =   0.0555556
        k(   21) = (   0.3333333   0.5773503  -0.3069368), wk =   0.0277778
        k(   22) = (  -0.1666667   0.0962250   0.0000000), wk =   0.0277778
        k(   23) = (   0.1666667   0.0962250   0.0000000), wk =   0.0277778
        k(   24) = (  -0.1666667   0.0962250   0.1534684), wk =   0.0555556
        k(   25) = (   0.1666667   0.0962250   0.1534684), wk =   0.0555556
        k(   26) = (  -0.1666667   0.0962250  -0.3069368), wk =   0.0277778
        k(   27) = (   0.1666667   0.0962250  -0.3069368), wk =   0.0277778
        k(   28) = (  -0.3333333   0.1924501   0.0000000), wk =   0.0277778
        k(   29) = (   0.3333333   0.1924501   0.0000000), wk =   0.0277778
        k(   30) = (  -0.3333333   0.1924501   0.1534684), wk =   0.0555556
        k(   31) = (   0.3333333   0.1924501   0.1534684), wk =   0.0555556
        k(   32) = (  -0.3333333   0.1924501  -0.3069368), wk =   0.0277778
        k(   33) = (   0.3333333   0.1924501  -0.3069368), wk =   0.0277778
        k(   34) = (   0.5000000  -0.2886751   0.0000000), wk =   0.0138889
        k(   35) = (  -0.5000000  -0.2886751   0.0000000), wk =   0.0138889
        k(   36) = (   0.5000000  -0.2886751   0.1534684), wk =   0.0277778
        k(   37) = (  -0.5000000  -0.2886751   0.1534684), wk =   0.0277778
        k(   38) = (   0.5000000  -0.2886751  -0.3069368), wk =   0.0138889
        k(   39) = (  -0.5000000  -0.2886751  -0.3069368), wk =   0.0138889
        k(   40) = (  -0.1666667   0.2886751   0.0000000), wk =   0.0277778
        k(   41) = (   0.3333333   0.0000000   0.0000000), wk =   0.0277778
        k(   42) = (  -0.1666667   0.2886751   0.1534684), wk =   0.0555556
        k(   43) = (   0.3333333   0.0000000   0.1534684), wk =   0.0555556
        k(   44) = (  -0.1666667   0.2886751  -0.3069368), wk =   0.0277778
        k(   45) = (   0.3333333   0.0000000  -0.3069368), wk =   0.0277778
        k(   46) = (  -0.3333333   0.3849002   0.0000000), wk =   0.0277778
        k(   47) = (   0.5000000   0.0962250   0.0000000), wk =   0.0277778
        k(   48) = (  -0.3333333  -0.3849002   0.0000000), wk =   0.0277778
        k(   49) = (   0.5000000  -0.0962250   0.0000000), wk =   0.0277778
        k(   50) = (  -0.1666667   0.4811252   0.0000000), wk =   0.0277778
        k(   51) = (  -0.3333333   0.3849002   0.1534684), wk =   0.0555556
        k(   52) = (   0.5000000   0.0962250   0.1534684), wk =   0.0555556
        k(   53) = (  -0.3333333  -0.3849002  -0.1534684), wk =   0.0555556
        k(   54) = (   0.5000000  -0.0962250  -0.1534684), wk =   0.0555556
        k(   55) = (  -0.1666667   0.4811252  -0.1534684), wk =   0.0555556
        k(   56) = (  -0.3333333   0.3849002  -0.3069368), wk =   0.0277778
        k(   57) = (   0.5000000   0.0962250  -0.3069368), wk =   0.0277778
        k(   58) = (  -0.3333333  -0.3849002   0.3069368), wk =   0.0277778
        k(   59) = (   0.5000000  -0.0962250   0.3069368), wk =   0.0277778
        k(   60) = (  -0.1666667   0.4811252   0.3069368), wk =   0.0277778

     Dense  grid:   141285 G-vectors     FFT dimensions: (  60,  60,  96)

     Smooth grid:    50113 G-vectors     FFT dimensions: (  45,  45,  72)

     Estimated max dynamical RAM per process >       1.10 GB

     Check: negative core charge=   -0.000004

     Initial potential from superposition of free atoms

     starting charge     167.9886, renormalised to     168.0000
     Starting wfcs are  112 randomized atomic wfcs

     total cpu time spent up to now is       85.7 secs

     per-process dynamical memory:   732.4 Mb

     Self-consistent Calculation

     iteration #  1     ecut=    45.00 Ry     beta= 0.40
     Davidson diagonalization with overlap
     ethr =  1.00E-02,  avg # of iterations =  4.0

     negative rho (up, down):  2.090E-02 0.000E+00

     total cpu time spent up to now is      410.5 secs

     total energy              =   -1446.86512200 Ry
     estimated scf accuracy    <      49.54939820 Ry

     iteration #  2     ecut=    45.00 Ry     beta= 0.40
     Davidson diagonalization with overlap
     ethr =  1.00E-02,  avg # of iterations =  3.1

     negative rho (up, down):  6.582E-03 0.000E+00

     total cpu time spent up to now is      723.0 secs

     total energy              =   -1463.05348656 Ry
     estimated scf accuracy    <     103.97209954 Ry

     iteration #  3     ecut=    45.00 Ry     beta= 0.40
     Davidson diagonalization with overlap
     ethr =  1.00E-02,  avg # of iterations =  4.5

     negative rho (up, down):  9.290E-03 0.000E+00

     total cpu time spent up to now is     1046.3 secs

     total energy              =   -1472.31026395 Ry
     estimated scf accuracy    <      10.66984583 Ry

     iteration #  4     ecut=    45.00 Ry     beta= 0.40
     Davidson diagonalization with overlap
     ethr =  6.35E-03,  avg # of iterations =  1.0

     negative rho (up, down):  1.845E-02 0.000E+00

     total cpu time spent up to now is     1254.8 secs

     total energy              =   -1470.54681405 Ry
     estimated scf accuracy    <       6.48298144 Ry

     iteration #  5     ecut=    45.00 Ry     beta= 0.40
     Davidson diagonalization with overlap
     ethr =  3.86E-03,  avg # of iterations =  2.1

     negative rho (up, down):  2.185E-02 0.000E+00

     total cpu time spent up to now is     1471.5 secs

     total energy              =   -1471.20797992 Ry
     estimated scf accuracy    <      10.85017108 Ry

     iteration #  6     ecut=    45.00 Ry     beta= 0.40
     Davidson diagonalization with overlap
     ethr =  3.86E-03,  avg # of iterations =  1.0

     negative rho (up, down):  2.435E-02 0.000E+00

     total cpu time spent up to now is     1644.6 secs

     total energy              =   -1471.13027113 Ry
     estimated scf accuracy    <       2.27471054 Ry

     iteration #  7     ecut=    45.00 Ry     beta= 0.40
     Davidson diagonalization with overlap
     ethr =  1.35E-03,  avg # of iterations =  2.4

     negative rho (up, down):  3.994E-02 0.000E+00

     total cpu time spent up to now is     1829.4 secs

     total energy              =   -1471.27008414 Ry
     estimated scf accuracy    <       0.24114664 Ry

     iteration #  8     ecut=    45.00 Ry     beta= 0.40
     Davidson diagonalization with overlap
     ethr =  1.44E-04,  avg # of iterations =  7.8

     negative rho (up, down):  4.435E-02 0.000E+00

     total cpu time spent up to now is     2151.4 secs

     total energy              =   -1471.30086953 Ry
     estimated scf accuracy    <       0.59795583 Ry

     iteration #  9     ecut=    45.00 Ry     beta= 0.40
     Davidson diagonalization with overlap
     ethr =  1.44E-04,  avg # of iterations =  2.0

     negative rho (up, down):  4.727E-02 0.000E+00

     total cpu time spent up to now is     2417.6 secs

     total energy              =   -1471.26938610 Ry
     estimated scf accuracy    <       0.27036224 Ry

     iteration # 10     ecut=    45.00 Ry     beta= 0.40
     Davidson diagonalization with overlap
     ethr =  1.44E-04,  avg # of iterations =  2.1

     negative rho (up, down):  4.970E-02 0.000E+00

     total cpu time spent up to now is     2617.7 secs

     total energy              =   -1471.31734071 Ry
     estimated scf accuracy    <       0.09083558 Ry

     iteration # 11     ecut=    45.00 Ry     beta= 0.40
     Davidson diagonalization with overlap
     ethr =  5.41E-05,  avg # of iterations =  1.6

     negative rho (up, down):  5.405E-02 0.000E+00

     total cpu time spent up to now is     2796.2 secs

     total energy              =   -1471.31300319 Ry
     estimated scf accuracy    <       0.05400473 Ry

     iteration # 12     ecut=    45.00 Ry     beta= 0.40
     Davidson diagonalization with overlap
     ethr =  3.21E-05,  avg # of iterations =  1.6

     negative rho (up, down):  5.980E-02 0.000E+00

     total cpu time spent up to now is     3002.6 secs

     total energy              =   -1471.31626426 Ry
     estimated scf accuracy    <       0.00422238 Ry

     iteration # 13     ecut=    45.00 Ry     beta= 0.40
     Davidson diagonalization with overlap
     ethr =  2.51E-06,  avg # of iterations =  6.5

     negative rho (up, down):  6.191E-02 0.000E+00

     total cpu time spent up to now is     3275.4 secs

     total energy              =   -1471.31656817 Ry
     estimated scf accuracy    <       0.00141126 Ry

     iteration # 14     ecut=    45.00 Ry     beta= 0.40
     Davidson diagonalization with overlap
     ethr =  8.40E-07,  avg # of iterations =  2.0

     negative rho (up, down):  6.597E-02 0.000E+00

     total cpu time spent up to now is     3485.0 secs

     total energy              =   -1471.31675622 Ry
     estimated scf accuracy    <       0.00051034 Ry

     iteration # 15     ecut=    45.00 Ry     beta= 0.40
     Davidson diagonalization with overlap
     ethr =  3.04E-07,  avg # of iterations =  2.0

     negative rho (up, down):  6.889E-02 0.000E+00

     total cpu time spent up to now is     3658.1 secs

     total energy              =   -1471.31678874 Ry
     estimated scf accuracy    <       0.00006253 Ry

     iteration # 16     ecut=    45.00 Ry     beta= 0.40
     Davidson diagonalization with overlap
     ethr =  3.72E-08,  avg # of iterations =  3.0

     negative rho (up, down):  6.906E-02 0.000E+00

     total cpu time spent up to now is     3862.0 secs

     total energy              =   -1471.31687805 Ry
     estimated scf accuracy    <       0.00004687 Ry

     iteration # 17     ecut=    45.00 Ry     beta= 0.40
     Davidson diagonalization with overlap
     ethr =  2.79E-08,  avg # of iterations =  2.0

     negative rho (up, down):  7.084E-02 0.000E+00

     total cpu time spent up to now is     4096.3 secs

     total energy              =   -1471.31686439 Ry
     estimated scf accuracy    <       0.00001579 Ry

     iteration # 18     ecut=    45.00 Ry     beta= 0.40
     Davidson diagonalization with overlap
     ethr =  9.40E-09,  avg # of iterations =  3.0

     negative rho (up, down):  7.144E-02 0.000E+00

     total cpu time spent up to now is     4361.6 secs

     total energy              =   -1471.31688757 Ry
     estimated scf accuracy    <       0.00000164 Ry

     iteration # 19     ecut=    45.00 Ry     beta= 0.40
     Davidson diagonalization with overlap
     ethr =  9.76E-10,  avg # of iterations =  3.0

     negative rho (up, down):  7.153E-02 0.000E+00

     total cpu time spent up to now is     4637.5 secs

     total energy              =   -1471.31690766 Ry
     estimated scf accuracy    <       0.00000247 Ry

     iteration # 20     ecut=    45.00 Ry     beta= 0.40
     Davidson diagonalization with overlap
     ethr =  9.76E-10,  avg # of iterations =  2.0

     negative rho (up, down):  7.171E-02 0.000E+00

     total cpu time spent up to now is     4859.4 secs

     total energy              =   -1471.31691333 Ry
     estimated scf accuracy    <       0.00000014 Ry

     iteration # 21     ecut=    45.00 Ry     beta= 0.40
     Davidson diagonalization with overlap
     ethr =  8.60E-11,  avg # of iterations =  3.1

     negative rho (up, down):  7.177E-02 0.000E+00

     total cpu time spent up to now is     5131.3 secs

     total energy              =   -1471.31691682 Ry
     estimated scf accuracy    <       0.00000009 Ry

     iteration # 22     ecut=    45.00 Ry     beta= 0.40
     Davidson diagonalization with overlap
     ethr =  5.26E-11,  avg # of iterations =  3.0

     negative rho (up, down):  7.187E-02 0.000E+00

     total cpu time spent up to now is     5389.0 secs

     total energy              =   -1471.31691782 Ry
     estimated scf accuracy    <       0.00000009 Ry

     iteration # 23     ecut=    45.00 Ry     beta= 0.40
     Davidson diagonalization with overlap
     ethr =  5.26E-11,  avg # of iterations =  3.0

     negative rho (up, down):  7.192E-02 0.000E+00

     total cpu time spent up to now is     5615.3 secs

     total energy              =   -1471.31691841 Ry
     estimated scf accuracy    <       0.00000005 Ry

     iteration # 24     ecut=    45.00 Ry     beta= 0.40
     Davidson diagonalization with overlap
     ethr =  3.04E-11,  avg # of iterations =  3.0

     negative rho (up, down):  7.195E-02 0.000E+00

     total cpu time spent up to now is     5869.5 secs

     End of self-consistent calculation

          k = 0.0000 0.0000 0.0000 (  6315 PWs)   bands (ev):

   -41.5414 -41.5409 -34.6994 -34.6990 -22.8537 -22.8517 -22.8504 -22.8498
   -17.8839 -17.8804 -17.7933 -17.7915 -17.7764 -17.7691 -15.7948 -15.7916
    -0.9423  -0.8889  -0.8483  -0.7960   1.6525   1.7324   1.7634   1.7822
     3.0787   3.8153   8.8569   9.2266  10.5697  11.0067  11.2480  11.2565
    11.2728  11.3552  11.5014  11.8167  11.8549  11.9734  12.1538  12.1901
    12.2164  12.2845  12.4578  12.6906  12.7740  12.7883  12.9023  12.9246
    12.9940  13.0925  13.2655  13.3031  13.3129  13.3495  13.3835  13.5223
    13.6724  13.8064  13.8208  13.8712  13.9146  13.9424  14.1080  14.1817
    14.1983  14.2488  14.3797  14.4852  14.5238  14.5373  14.5668  14.6324
    14.7868  14.8765  15.0265  15.1138  15.2433  15.3105  15.3241  15.3960
    15.3974  15.4820  15.7757  16.4562  16.4828  16.6884  16.6908  16.8418
    16.9483  16.9744  17.0521  17.0986  17.1341  17.3351  17.3524  17.3857
    17.6031  17.6922  17.8500  18.2685  18.2941

          k = 0.0000 0.0000 0.1535 (  6219 PWs)   bands (ev):

   -41.5413 -41.5410 -34.6991 -34.6988 -22.8529 -22.8510 -22.8503 -22.8500
   -17.8831 -17.8807 -17.7927 -17.7916 -17.7752 -17.7699 -15.7927 -15.7911
    -0.9346  -0.8975  -0.8394  -0.8030   1.6688   1.7375   1.7601   1.7601
     3.1805   3.6968   8.9194   9.2004  10.6982  11.0976  11.2519  11.2842
    11.3008  11.3789  11.5236  11.7503  11.8462  11.8910  11.9714  12.1113
    12.2445  12.3404  12.3984  12.4929  12.5567  12.7453  12.8214  12.9375
    13.1751  13.2190  13.2644  13.3465  13.4135  13.4758  13.5289  13.7227
    13.7457  13.8401  13.8654  13.9102  13.9434  13.9794  14.0330  14.1907
    14.2507  14.2708  14.3732  14.4792  14.5072  14.5375  14.5498  14.5734
    14.7814  14.8363  14.9104  14.9691  15.0611  15.1101  15.2397  15.2678
    15.3335  15.5919  16.0130  16.2511  16.4275  16.4473  16.6825  16.7910
    16.9252  16.9710  16.9717  17.0907  17.1050  17.1404  17.3194  17.4020
    17.7047  18.1194  18.3157  18.4015  18.4445

          k = 0.0000 0.0000-0.3069 (  6238 PWs)   bands (ev):

   -41.5411 -41.5411 -34.6990 -34.6990 -22.8513 -22.8513 -22.8508 -22.8508
   -17.8819 -17.8819 -17.7923 -17.7923 -17.7725 -17.7725 -15.7925 -15.7925
    -0.9163  -0.9163  -0.8209  -0.8209   1.7104   1.7104   1.7487   1.7487
     3.4279   3.4279   9.0708   9.0708  11.0419  11.0419  11.3186  11.3186
    11.3435  11.3435  11.5998  11.5998  11.7246  11.7246  11.9946  11.9946
    12.2964  12.2964  12.4403  12.4403  12.5806  12.5806  12.7036  12.7036
    13.3062  13.3062  13.4283  13.4283  13.5908  13.5908  13.6516  13.6516
    13.8128  13.8128  13.8849  13.8849  14.0889  14.0889  14.2372  14.2372
    14.2622  14.2622  14.4307  14.4307  14.5084  14.5084  14.5560  14.5560
    14.6575  14.6575  14.7927  14.7927  14.8684  14.8684  15.2677  15.2677
    15.4572  15.4572  16.0894  16.0894  16.2857  16.2857  16.7437  16.7437
    16.9108  16.9108  17.0317  17.0317  17.1863  17.1863  17.2666  17.2666
    18.0771  18.0771  18.4044  18.4045  18.6015

          k = 0.0000 0.1925 0.0000 (  6253 PWs)   bands (ev):

   -41.5413 -41.5408 -34.6993 -34.6987 -22.8533 -22.8516 -22.8505 -22.8499
   -17.8844 -17.8810 -17.7945 -17.7929 -17.7768 -17.7693 -15.7935 -15.7913
    -0.9375  -0.8864  -0.8445  -0.7984   1.6640   1.7243   1.7506   1.7772
     3.1664   3.8117   8.9923   9.4274  10.5618  11.1151  11.3325  11.3587
    11.3877  11.4297  11.5951  11.7519  11.9695  12.0368  12.1844  12.2310
    12.3334  12.3634  12.5288  12.5734  12.7780  12.7789  12.8423  12.9383
    12.9563  13.0616  13.2507  13.2706  13.3174  13.3448  13.4160  13.4328
    13.6333  13.7621  13.8211  13.8576  13.8823  13.9922  14.1053  14.1238
    14.1767  14.1893  14.2168  14.3395  14.4670  14.4675  14.6242  14.6419
    14.6709  14.6938  14.7681  14.8311  14.9756  15.0037  15.0474  15.1805
    15.3636  15.5176  15.6013  15.7579  16.1966  16.3869  16.5182  16.7013
    16.9112  16.9550  16.9951  17.0600  17.1533  17.2471  17.4120  17.5315
    17.5914  18.0629  18.1127  18.3835  18.4218

          k = 0.0000 0.1925 0.1535 (  6246 PWs)   bands (ev):

   -41.5413 -41.5409 -34.6992 -34.6988 -22.8528 -22.8515 -22.8507 -22.8502
   -17.8839 -17.8815 -17.7943 -17.7931 -17.7756 -17.7705 -15.7931 -15.7916
    -0.9304  -0.8949  -0.8366  -0.8047   1.6776   1.7287   1.7439   1.7606
     3.2542   3.7083   9.0497   9.3580  10.7607  11.1533  11.3258  11.3724
    11.4244  11.4491  11.6047  11.6947  11.9262  12.0245  12.0692  12.1822
    12.2471  12.4027  12.4585  12.5283  12.5985  12.7453  12.7617  12.8798
    13.1044  13.1929  13.2764  13.3595  13.4113  13.4447  13.5021  13.6208
    13.6613  13.7708  13.8160  13.8620  13.9392  13.9910  14.0609  14.1169
    14.2011  14.2218  14.2604  14.3438  14.3856  14.4905  14.5434  14.5874
    14.6320  14.6640  14.8217  14.8259  14.8907  14.9611  15.0531  15.1171
    15.2126  15.2983  15.3492  15.9955  16.1775  16.4029  16.4714  16.7488
    16.8593  16.9331  16.9739  17.0999  17.2156  17.2826  17.3181  17.3446
    17.7805  17.9317  18.1340  18.2962  18.6183

          k = 0.0000 0.1925-0.3069 (  6226 PWs)   bands (ev):

   -41.5411 -41.5411 -34.6989 -34.6989 -22.8515 -22.8515 -22.8508 -22.8508
   -17.8826 -17.8826 -17.7937 -17.7937 -17.7730 -17.7730 -15.7922 -15.7922
    -0.9132  -0.9132  -0.8200  -0.8200   1.7126   1.7126   1.7405   1.7405
     3.4737   3.4737   9.1975   9.1975  11.1732  11.1732  11.2654  11.2654
    11.4440  11.4440  11.7301  11.7301  11.7711  11.7711  12.1129  12.1129
    12.3034  12.3034  12.5125  12.5125  12.5700  12.5700  12.7127  12.7127
    13.2925  13.2925  13.3892  13.3892  13.5587  13.5587  13.6081  13.6081
    13.7371  13.7371  13.8265  13.8265  13.9946  13.9946  14.1371  14.1371
    14.1988  14.1988  14.3477  14.3477  14.4150  14.4150  14.5021  14.5021
    14.6585  14.6585  14.7640  14.7640  14.8417  14.8417  14.9786  14.9786
    15.1254  15.1254  15.5672  15.5672  16.3158  16.3158  16.7628  16.7628
    16.8637  16.8637  16.9831  16.9831  17.2610  17.2610  17.4299  17.4299
    17.8184  17.8184  18.1113  18.1113  18.8698

          k = 0.0000 0.3849 0.0000 (  6250 PWs)   bands (ev):

   -41.5412 -41.5407 -34.6993 -34.6987 -22.8527 -22.8520 -22.8512 -22.8504
   -17.8858 -17.8825 -17.7975 -17.7957 -17.7776 -17.7702 -15.7935 -15.7916
    -0.9277  -0.8820  -0.8351  -0.8055   1.6901   1.7079   1.7255   1.7618
     3.3694   3.7709   9.3693   9.9826  10.4733  11.2954  11.2960  11.4669
    11.6714  11.6993  11.7409  11.8697  12.1202  12.2767  12.3002  12.3568
    12.4384  12.5269  12.5746  12.6784  12.7440  12.7941  12.8040  12.8290
    12.8855  12.9872  13.1347  13.1612  13.1973  13.2653  13.3347  13.4624
    13.5583  13.5746  13.6192  13.6580  13.8665  13.8912  13.9924  14.0030
    14.0508  14.1448  14.2079  14.2362  14.2369  14.2452  14.3312  14.3385
    14.4201  14.5321  14.6108  14.6286  14.6866  14.7057  14.7171  14.7910
    14.9258  15.1385  15.2341  15.3764  16.0610  16.2700  16.3593  16.3850
    16.6226  16.7074  16.7643  16.9973  17.0747  17.2515  17.4290  17.5354
    17.7185  17.9662  17.9989  18.4269  18.9514

          k = 0.0000 0.3849 0.1535 (  6249 PWs)   bands (ev):

   -41.5411 -41.5407 -34.6992 -34.6988 -22.8525 -22.8520 -22.8513 -22.8507
   -17.8853 -17.8829 -17.7972 -17.7960 -17.7765 -17.7713 -15.7931 -15.7919
    -0.9218  -0.8900  -0.8295  -0.8090   1.6967   1.7130   1.7218   1.7521
     3.4260   3.7094   9.4037   9.7572  10.7777  11.1637  11.3615  11.5645
    11.6894  11.7149  11.7889  11.8747  12.0507  12.2504  12.3002  12.3364
    12.3734  12.5003  12.5253  12.6582  12.6685  12.7189  12.7538  12.8589
    12.9814  13.0677  13.1443  13.2172  13.2279  13.3189  13.4104  13.4462
    13.5703  13.6149  13.6365  13.6673  13.8482  13.8898  13.9359  14.0457
    14.0986  14.1406  14.1635  14.1662  14.2201  14.2583  14.2908  14.3525
    14.4766  14.5671  14.5943  14.6472  14.6595  14.7099  14.7503  14.7722
    14.8852  14.9674  15.2248  15.3327  16.0207  16.2524  16.3302  16.3851
    16.5601  16.6911  16.7434  16.9954  17.1214  17.2381  17.3952  17.5974
    17.7938  17.9466  18.0879  18.3478  18.7433

          k = 0.0000 0.3849-0.3069 (  6240 PWs)   bands (ev):

   -41.5409 -41.5409 -34.6989 -34.6989 -22.8520 -22.8520 -22.8511 -22.8511
   -17.8841 -17.8841 -17.7966 -17.7966 -17.7739 -17.7739 -15.7925 -15.7925
    -0.9067  -0.9067  -0.8183  -0.8183   1.7104   1.7104   1.7308   1.7308
     3.5653   3.5653   9.5257   9.5257  11.0273  11.0273  11.5742  11.5742
    11.6824  11.6824  11.9150  11.9150  12.0210  12.0210  12.3031  12.3031
    12.4114  12.4114  12.5571  12.5571  12.6513  12.6513  12.7774  12.7774
    13.1192  13.1192  13.2210  13.2210  13.3171  13.3171  13.4498  13.4498
    13.5485  13.5485  13.7213  13.7213  13.8820  13.8820  13.9981  13.9981
    14.0488  14.0488  14.1466  14.1466  14.2632  14.2632  14.3113  14.3113
    14.5596  14.5596  14.5822  14.5822  14.7050  14.7050  14.7580  14.7580
    14.9304  14.9304  15.1029  15.1029  16.1876  16.1876  16.3284  16.3284
    16.6595  16.6595  16.7402  16.7402  17.1925  17.1925  17.6670  17.6670
    17.9032  17.9032  18.0119  18.0119  18.9809

          k = 0.0000-0.5774 0.0000 (  6248 PWs)   bands (ev):

   -41.5411 -41.5406 -34.6993 -34.6988 -22.8523 -22.8521 -22.8515 -22.8509
   -17.8865 -17.8833 -17.7988 -17.7973 -17.7780 -17.7706 -15.7933 -15.7921
    -0.9227  -0.8798  -0.8278  -0.8115   1.6998   1.7084   1.7139   1.7492
     3.5264   3.6946   9.7414  10.2269  10.5728  10.9432  11.2119  11.6846
    11.8381  11.9355  12.0047  12.0114  12.1089  12.1937  12.2565  12.3919
    12.5520  12.6474  12.6765  12.7402  12.7633  12.7981  12.8367  12.8953
    12.9178  12.9566  13.0222  13.0941  13.1192  13.1788  13.2818  13.2877
    13.3862  13.5113  13.5951  13.7082  13.7093  13.7112  13.7663  13.8625
    13.9891  14.0519  14.0828  14.1193  14.2336  14.2380  14.2462  14.2969
    14.3708  14.3718  14.4181  14.4415  14.5849  14.6553  14.6826  14.7709
    14.7712  15.0120  15.0179  15.3784  16.0111  16.1219  16.3058  16.3504
    16.5046  16.5181  16.6401  16.9626  17.0379  17.2834  17.3955  17.6474
    17.7547  17.9057  18.0007  18.3990  19.1948

          k = 0.0000-0.5774 0.1535 (  6254 PWs)   bands (ev):

   -41.5410 -41.5407 -34.6992 -34.6988 -22.8524 -22.8522 -22.8514 -22.8509
   -17.8860 -17.8837 -17.7987 -17.7975 -17.7769 -17.7717 -15.7932 -15.7924
    -0.9173  -0.8877  -0.8240  -0.8131   1.7011   1.7070   1.7192   1.7435
     3.5513   3.6705   9.7127  10.0188  10.6715  10.9073  11.5091  11.7767
    11.8299  11.9238  11.9781  12.0278  12.1855  12.1961  12.2958  12.3810
    12.5207  12.5693  12.6582  12.6756  12.7158  12.7311  12.8164  12.9122
    12.9249  12.9532  13.0488  13.0704  13.1141  13.2071  13.3048  13.3874
    13.3948  13.5094  13.5777  13.6225  13.6934  13.7475  13.8533  13.8952
    13.9825  13.9864  14.0658  14.0979  14.1697  14.2298  14.2883  14.3182
    14.3246  14.3859  14.5077  14.5565  14.6306  14.6403  14.6896  14.6971
    14.7750  14.9360  15.0372  15.2269  16.0804  16.1346  16.1639  16.2825
    16.4699  16.5190  16.6146  16.9254  17.0580  17.2453  17.4777  17.6128
    17.8331  17.9630  18.0519  18.3443  18.8794

          k = 0.0000-0.5774-0.3069 (  6272 PWs)   bands (ev):

   -41.5408 -41.5408 -34.6990 -34.6990 -22.8524 -22.8524 -22.8512 -22.8512
   -17.8849 -17.8849 -17.7981 -17.7981 -17.7744 -17.7744 -15.7930 -15.7930
    -0.9036  -0.9036  -0.8175  -0.8175   1.7042   1.7042   1.7308   1.7308
     3.6111   3.6111   9.7744   9.7744  10.8215  10.8215  11.7749  11.7749
    11.8766  11.8766  12.1224  12.1224  12.2562  12.2562  12.2687  12.2687
    12.4359  12.4359  12.6259  12.6259  12.6897  12.6897  12.8363  12.8363
    12.9442  12.9442  13.1041  13.1041  13.1576  13.1576  13.3192  13.3192
    13.5451  13.5451  13.6256  13.6256  13.6671  13.6671  13.8828  13.8828
    13.9729  13.9729  14.0658  14.0658  14.1930  14.1930  14.2759  14.2759
    14.3656  14.3656  14.6053  14.6053  14.6195  14.6195  14.7060  14.7060
    14.9394  14.9394  14.9799  14.9799  16.0290  16.0290  16.2299  16.2299
    16.5199  16.5199  16.6055  16.6055  17.1752  17.1752  17.7368  17.7368
    17.9497  17.9497  18.0256  18.0256  18.8957

          k = 0.1667 0.2887 0.0000 (  6240 PWs)   bands (ev):

   -41.5412 -41.5407 -34.6992 -34.6987 -22.8529 -22.8523 -22.8515 -22.8502
   -17.8863 -17.8829 -17.7954 -17.7937 -17.7779 -17.7703 -15.7924 -15.7907
    -0.9263  -0.8781  -0.8356  -0.8049   1.6770   1.6926   1.7056   1.7657
     3.3795   3.8229   9.1296   9.8457  10.4334  11.2680  11.3402  11.3492
    11.4055  11.6878  11.6991  11.7602  12.0632  12.2215  12.2325  12.3657
    12.3999  12.4897  12.5983  12.6733  12.6788  12.7324  12.7834  12.7989
    12.8765  13.0350  13.0948  13.2375  13.2772  13.3300  13.4062  13.5211
    13.6047  13.6119  13.7865  13.8155  13.9078  13.9605  13.9883  14.0473
    14.1697  14.2315  14.2546  14.2689  14.2703  14.2954  14.3333  14.3986
    14.5304  14.5486  14.6390  14.7461  14.8436  14.8659  14.9395  15.0068
    15.1713  15.1727  15.2279  15.6100  16.0253  16.2215  16.4651  16.4717
    16.7474  16.8098  16.9473  16.9770  17.0310  17.0831  17.4059  17.5101
    17.5440  17.9093  18.1576  18.5220  18.5299

          k = 0.1667 0.2887 0.1535 (  6242 PWs)   bands (ev):

   -41.5411 -41.5408 -34.6992 -34.6989 -22.8529 -22.8519 -22.8517 -22.8504
   -17.8858 -17.8834 -17.7951 -17.7939 -17.7767 -17.7715 -15.7924 -15.7910
    -0.9201  -0.8868  -0.8294  -0.8085   1.6767   1.6992   1.7066   1.7564
     3.4414   3.7544   9.1772   9.5995  10.8059  11.2256  11.3285  11.3699
    11.5245  11.6160  11.6581  11.8301  12.0262  12.1932  12.2194  12.2788
    12.3029  12.4603  12.5562  12.6276  12.6513  12.7172  12.7224  12.9224
    12.9467  13.0392  13.1883  13.2736  13.3163  13.3806  13.4241  13.5633
    13.6040  13.6138  13.7362  13.7850  13.8820  13.9454  14.0335  14.1310
    14.1534  14.1746  14.2026  14.2536  14.2865  14.3386  14.3936  14.4436
    14.5330  14.5382  14.6477  14.7361  14.7865  14.8339  14.9403  14.9961
    15.0447  15.1219  15.2294  15.5387  16.0756  16.1738  16.4387  16.4706
    16.6788  16.8216  16.9448  16.9938  17.0165  17.1128  17.3139  17.5293
    17.6776  17.8111  18.0427  18.4632  18.8664

          k = 0.1667 0.2887-0.3069 (  6252 PWs)   bands (ev):

   -41.5410 -41.5410 -34.6990 -34.6990 -22.8524 -22.8524 -22.8511 -22.8511
   -17.8846 -17.8846 -17.7946 -17.7946 -17.7741 -17.7741 -15.7918 -15.7918
    -0.9045  -0.9045  -0.8180  -0.8180   1.6855   1.6855   1.7328   1.7328
     3.5945   3.5945   9.3307   9.3307  11.1796  11.1796  11.3909  11.3909
    11.5091  11.5091  11.8083  11.8083  11.9898  11.9898  12.2311  12.2311
    12.3445  12.3445  12.5669  12.5669  12.6471  12.6471  12.7848  12.7848
    13.1170  13.1170  13.2908  13.2908  13.3547  13.3547  13.5125  13.5125
    13.6235  13.6235  13.7393  13.7393  13.9181  13.9181  14.0657  14.0657
    14.1818  14.1818  14.2283  14.2283  14.2984  14.2984  14.4325  14.4325
    14.5914  14.5914  14.6247  14.6247  14.8292  14.8292  14.8928  14.8928
    15.1107  15.1107  15.2557  15.2557  16.1606  16.1606  16.4379  16.4379
    16.7255  16.7255  16.9546  16.9546  17.0861  17.0861  17.4133  17.4133
    17.7415  17.7415  18.1955  18.1955  19.1959

          k = 0.1667 0.4811 0.0000 (  6247 PWs)   bands (ev):

   -41.5411 -41.5406 -34.6992 -34.6988 -22.8526 -22.8521 -22.8519 -22.8509
   -17.8870 -17.8837 -17.7983 -17.7964 -17.7782 -17.7708 -15.7928 -15.7915
    -0.9204  -0.8763  -0.8276  -0.8114   1.6870   1.6994   1.7028   1.7503
     3.5474   3.7420   9.5707  10.4715  10.5097  10.9947  11.1391  11.4253
    11.6547  11.8137  11.9574  12.0417  12.2245  12.2677  12.4002  12.4766
    12.5767  12.5946  12.6134  12.6573  12.7263  12.7516  12.7885  12.8851
    12.9168  12.9685  12.9915  13.0298  13.0920  13.2583  13.2595  13.3051
    13.3763  13.4349  13.6734  13.7174  13.7718  13.8348  13.8508  13.9623
    13.9682  14.0962  14.1030  14.1877  14.2111  14.2604  14.2871  14.2936
    14.3250  14.3886  14.5241  14.5890  14.6245  14.6896  14.7573  14.8156
    14.8784  14.9337  15.0041  15.2517  15.8535  16.0395  16.3588  16.4154
    16.5915  16.6438  16.7882  16.7908  17.0356  17.0927  17.3671  17.7283
    17.7497  17.9984  18.0984  18.5557  18.7487

          k = 0.1667 0.4811 0.1535 (  6255 PWs)   bands (ev):

   -41.5410 -41.5407 -34.6992 -34.6989 -22.8528 -22.8523 -22.8516 -22.8509
   -17.8866 -17.8842 -17.7980 -17.7967 -17.7772 -17.7720 -15.7927 -15.7919
    -0.9150  -0.8845  -0.8235  -0.8128   1.6841   1.6946   1.7148   1.7456
     3.5759   3.7136   9.5833  10.0203  10.8716  11.0575  11.2560  11.4841
    11.5685  11.8621  12.0054  12.1041  12.1978  12.3130  12.3693  12.4873
    12.5032  12.5607  12.5963  12.6423  12.6678  12.7608  12.7926  12.8138
    12.8824  13.0001  13.0323  13.0669  13.1448  13.2374  13.2912  13.3055
    13.3710  13.5508  13.5838  13.6801  13.7579  13.8216  13.9002  13.9463
    13.9896  14.0430  14.0855  14.0932  14.2092  14.2610  14.2966  14.3330
    14.3736  14.4340  14.5025  14.6319  14.6535  14.6841  14.7407  14.7842
    14.8245  14.9372  15.0133  15.1466  15.9472  16.0522  16.3157  16.3210
    16.5749  16.6176  16.8103  16.8403  17.0537  17.0595  17.5489  17.5877
    17.7858  17.9113  18.0426  18.5329  18.9808

          k = 0.1667 0.4811-0.3069 (  6250 PWs)   bands (ev):

   -41.5408 -41.5408 -34.6990 -34.6990 -22.8527 -22.8527 -22.8511 -22.8511
   -17.8854 -17.8854 -17.7973 -17.7973 -17.7746 -17.7746 -15.7922 -15.7922
    -0.9009  -0.9009  -0.8170  -0.8170   1.6870   1.6870   1.7327   1.7327
     3.6452   3.6452   9.7045   9.7045  11.0447  11.0447  11.3541  11.3541
    11.8743  11.8743  12.0624  12.0624  12.2834  12.2834  12.3647  12.3647
    12.4913  12.4913  12.5815  12.5815  12.6972  12.6972  12.7899  12.7899
    12.9387  12.9387  13.1211  13.1211  13.1742  13.1742  13.2980  13.2980
    13.4968  13.4968  13.6440  13.6440  13.7548  13.7548  13.8944  13.8944
    14.0076  14.0076  14.1038  14.1038  14.2072  14.2072  14.3110  14.3110
    14.4393  14.4393  14.5645  14.5645  14.6588  14.6588  14.7458  14.7458
    14.9309  14.9309  15.0305  15.0305  16.0213  16.0213  16.2664  16.2664
    16.5666  16.5666  16.8725  16.8725  16.9821  16.9821  17.5911  17.5911
    17.8699  17.8699  18.2838  18.2838  19.0554

          k = 0.3333 0.5774 0.0000 (  6246 PWs)   bands (ev):

   -41.5411 -41.5406 -34.6992 -34.6989 -22.8531 -22.8525 -22.8516 -22.8512
   -17.8875 -17.8841 -17.7993 -17.7971 -17.7782 -17.7710 -15.7924 -15.7917
    -0.9184  -0.8726  -0.8310  -0.8073   1.6787   1.6912   1.7190   1.7355
     3.5441   3.8288   9.9450  10.2401  10.7222  10.7455  11.3247  11.3712
    11.5196  11.8675  11.8691  12.2254  12.3177  12.4073  12.4427  12.4614
    12.5506  12.5971  12.6510  12.6901  12.7390  12.7608  12.8252  12.8580
    12.9408  13.0059  13.0233  13.0574  13.1353  13.1596  13.2633  13.2998
    13.4194  13.4346  13.5099  13.5112  13.6870  13.7008  13.7829  13.9188
    13.9779  14.0207  14.0546  14.0819  14.1320  14.2401  14.2615  14.2793
    14.3730  14.4020  14.5153  14.5289  14.6454  14.6887  14.7582  14.7732
    14.8399  14.8480  14.8933  15.1114  15.5994  15.9955  16.2211  16.4660
    16.5962  16.6764  16.8270  16.8772  16.9595  17.0425  17.3821  17.8120
    17.8128  18.0208  18.2753  18.8710  19.0237

          k = 0.3333 0.5774 0.1535 (  6267 PWs)   bands (ev):

   -41.5410 -41.5406 -34.6992 -34.6990 -22.8532 -22.8529 -22.8514 -22.8512
   -17.8871 -17.8846 -17.7990 -17.7975 -17.7773 -17.7721 -15.7925 -15.7920
    -0.9127  -0.8811  -0.8259  -0.8099   1.6764   1.6854   1.7251   1.7364
     3.5838   3.7851   9.9407  10.1973  10.6036  10.9354  11.1054  11.2889
    11.7761  11.8995  12.1067  12.2464  12.3317  12.3921  12.3978  12.4491
    12.5376  12.5820  12.6258  12.6366  12.7145  12.7816  12.8226  12.8787
    12.9426  12.9796  13.0154  13.0757  13.1261  13.1789  13.2319  13.3437
    13.4135  13.4965  13.5384  13.5775  13.6250  13.6945  13.8005  13.8770
    13.8924  13.9827  14.0037  14.0708  14.1460  14.2131  14.2536  14.3096
    14.3176  14.4038  14.4333  14.5652  14.6100  14.6774  14.7467  14.7764
    14.8165  14.8832  14.9297  15.0622  15.8251  16.0286  16.2215  16.4429
    16.5634  16.6639  16.8135  16.8288  17.0233  17.1025  17.5313  17.7836
    17.8683  18.0351  18.2537  18.4975  18.9138

          k = 0.3333 0.5774-0.3069 (  6282 PWs)   bands (ev):

   -41.5408 -41.5408 -34.6991 -34.6991 -22.8533 -22.8533 -22.8513 -22.8513
   -17.8859 -17.8859 -17.7983 -17.7983 -17.7748 -17.7748 -15.7923 -15.7923
    -0.8980  -0.8980  -0.8169  -0.8169   1.6776   1.6776   1.7338   1.7338
     3.6826   3.6826  10.0286  10.0286  10.7506  10.7506  11.1739  11.1739
    12.0267  12.0267  12.2138  12.2138  12.3272  12.3272  12.4527  12.4527
    12.5115  12.5115  12.6018  12.6018  12.7554  12.7554  12.8287  12.8287
    12.9909  12.9909  13.0219  13.0219  13.1613  13.1613  13.2902  13.2902
    13.4628  13.4628  13.6058  13.6058  13.7155  13.7155  13.7525  13.7525
    13.8892  13.8892  13.9905  13.9905  14.1469  14.1469  14.2803  14.2803
    14.3554  14.3554  14.5099  14.5099  14.6227  14.6227  14.6833  14.6833
    14.9362  14.9362  14.9970  14.9970  16.0446  16.0446  16.3025  16.3025
    16.5861  16.5861  16.8063  16.8063  17.1259  17.1259  17.7420  17.7420
    17.8542  17.8542  18.4880  18.4880  18.9375

          k =-0.1667 0.0962 0.0000 (  6253 PWs)   bands (ev):

   -41.5413 -41.5408 -34.6992 -34.6987 -22.8533 -22.8517 -22.8507 -22.8499
   -17.8843 -17.8809 -17.7949 -17.7932 -17.7766 -17.7692 -15.7935 -15.7913
    -0.9384  -0.8860  -0.8464  -0.7966   1.6653   1.7268   1.7516   1.7761
     3.1504   3.8348   8.9778   9.4199  10.6285  11.0387  11.3075  11.3275
    11.4021  11.4459  11.5943  11.8574  11.9467  11.9939  12.1350  12.2295
    12.3164  12.3402  12.5487  12.6033  12.7552  12.8031  12.8989  12.9778
    13.0076  13.0914  13.1836  13.2364  13.3090  13.3857  13.4581  13.4643
    13.6799  13.7913  13.8419  13.8517  13.8662  13.9382  14.1014  14.1481
    14.1928  14.1998  14.2036  14.3865  14.3978  14.4620  14.5536  14.6169
    14.6176  14.7086  14.7140  14.9369  14.9677  14.9850  15.0576  15.1699
    15.1975  15.4637  15.6380  15.8558  16.2430  16.2697  16.4453  16.6622
    16.9397  16.9495  16.9857  17.1846  17.2700  17.3250  17.5630  17.6046
    17.6390  17.7107  18.1537  18.1563  18.3257

          k = 0.1667 0.0962 0.0000 (  6253 PWs)   bands (ev):

   -41.5413 -41.5408 -34.6993 -34.6989 -22.8533 -22.8518 -22.8510 -22.8499
   -17.8849 -17.8816 -17.7938 -17.7921 -17.7770 -17.7695 -15.7931 -15.7907
    -0.9352  -0.8830  -0.8439  -0.7986   1.6610   1.7121   1.7315   1.7759
     3.2046   3.8457   8.9213   9.4430  10.4678  11.1686  11.2812  11.2949
    11.3268  11.4893  11.4967  11.8149  11.8976  12.0487  12.1124  12.2463
    12.3150  12.3528  12.5261  12.6608  12.7183  12.8299  12.8795  12.9208
    13.0176  13.0306  13.2081  13.2335  13.3500  13.3737  13.4290  13.5597
    13.6718  13.7976  13.8253  13.9021  13.9078  14.0022  14.0831  14.1268
    14.1863  14.2671  14.2847  14.3725  14.4555  14.4583  14.5204  14.5413
    14.6644  14.7293  14.7605  14.8794  14.9349  15.0395  15.1296  15.1908
    15.3730  15.4846  15.6071  16.1539  16.2242  16.4968  16.6045  16.6966
    16.8748  16.8944  16.9242  17.0137  17.2355  17.2639  17.3652  17.4975
    17.5769  17.8597  18.0549  18.2632  18.2786

          k =-0.1667 0.0962 0.1535 (  6246 PWs)   bands (ev):

   -41.5413 -41.5409 -34.6991 -34.6988 -22.8528 -22.8515 -22.8508 -22.8501
   -17.8838 -17.8814 -17.7947 -17.7934 -17.7754 -17.7703 -15.7932 -15.7916
    -0.9310  -0.8946  -0.8381  -0.8036   1.6778   1.7316   1.7425   1.7625
     3.2426   3.7234   9.0437   9.3703  10.7691  11.1210  11.2773  11.3642
    11.4291  11.4741  11.6126  11.7756  11.9005  11.9552  12.0563  12.1636
    12.2683  12.4068  12.4814  12.5475  12.6117  12.7402  12.7900  12.9171
    13.1696  13.2117  13.2653  13.3302  13.4119  13.4822  13.5007  13.6317
    13.6853  13.8066  13.8330  13.8750  13.9377  13.9819  14.0114  14.1269
    14.1700  14.2139  14.2558  14.3777  14.3910  14.4588  14.4885  14.5278
    14.6089  14.6717  14.7646  14.8472  14.9044  14.9505  15.0585  15.1119
    15.1494  15.2665  15.3832  15.6293  16.3743  16.4174  16.5276  16.6702
    16.8747  16.9237  17.0302  17.0442  17.2598  17.3286  17.4411  17.5507
    17.7989  17.9338  18.1497  18.2146  18.4163

          k = 0.1667 0.0962 0.1535 (  6246 PWs)   bands (ev):

   -41.5413 -41.5409 -34.6992 -34.6989 -22.8529 -22.8516 -22.8511 -22.8501
   -17.8844 -17.8820 -17.7936 -17.7924 -17.7758 -17.7706 -15.7929 -15.7912
    -0.9280  -0.8919  -0.8360  -0.8046   1.6713   1.7190   1.7226   1.7631
     3.2912   3.7423   8.9827   9.3418  10.6959  11.2156  11.2644  11.3183
    11.3983  11.4533  11.5107  11.7835  11.8965  11.9712  12.0442  12.1683
    12.2248  12.3839  12.4907  12.5546  12.6316  12.7285  12.7993  12.9672
    13.0698  13.1374  13.3148  13.3213  13.4082  13.4739  13.5680  13.5895
    13.7133  13.7977  13.8550  13.9001  13.9206  13.9757  14.0442  14.1427
    14.2489  14.2790  14.3154  14.3500  14.4124  14.4478  14.5309  14.5443
    14.6034  14.7517  14.7672  14.8016  14.8984  14.9794  15.1642  15.1996
    15.2514  15.2659  15.3912  16.0367  16.4136  16.5166  16.5913  16.7545
    16.8518  16.9072  16.9348  17.0411  17.0901  17.1395  17.2620  17.4444
    17.6653  17.8561  18.1033  18.2805  18.5883

          k =-0.1667 0.0962-0.3069 (  6226 PWs)   bands (ev):

   -41.5411 -41.5411 -34.6989 -34.6989 -22.8515 -22.8515 -22.8509 -22.8509
   -17.8825 -17.8825 -17.7940 -17.7940 -17.7728 -17.7728 -15.7923 -15.7923
    -0.9131  -0.9131  -0.8203  -0.8203   1.7103   1.7103   1.7445   1.7445
     3.4738   3.4738   9.2095   9.2095  11.0992  11.0992  11.3398  11.3398
    11.4442  11.4442  11.6532  11.6532  11.8445  11.8445  12.0767  12.0767
    12.3248  12.3248  12.5138  12.5138  12.6050  12.6050  12.7212  12.7212
    13.2957  13.2957  13.4149  13.4149  13.5755  13.5755  13.6058  13.6058
    13.7995  13.7995  13.8570  13.8570  13.9697  13.9697  14.1418  14.1418
    14.1820  14.1820  14.2810  14.2810  14.3655  14.3655  14.4875  14.4875
    14.6334  14.6334  14.7455  14.7455  14.8092  14.8092  15.0325  15.0325
    15.1173  15.1173  15.3868  15.3868  16.5000  16.5000  16.5870  16.5870
    16.8953  16.8953  17.0766  17.0766  17.1699  17.1699  17.5022  17.5022
    17.8902  17.8902  18.2506  18.2506  18.9626

          k = 0.1667 0.0962-0.3069 (  6226 PWs)   bands (ev):

   -41.5411 -41.5411 -34.6990 -34.6990 -22.8518 -22.8518 -22.8509 -22.8509
   -17.8831 -17.8831 -17.7929 -17.7929 -17.7732 -17.7732 -15.7918 -15.7918
    -0.9106  -0.9106  -0.8196  -0.8196   1.6970   1.6970   1.7390   1.7390
     3.5091   3.5091   9.1457   9.1457  11.1306  11.1306  11.2777  11.2777
    11.4294  11.4294  11.6549  11.6549  11.8242  11.8242  12.0561  12.0561
    12.2981  12.2981  12.4904  12.4904  12.6259  12.6259  12.7785  12.7785
    13.2172  13.2172  13.4099  13.4099  13.5015  13.5015  13.6861  13.6861
    13.7482  13.7482  13.9029  13.9029  13.9557  13.9557  14.1649  14.1649
    14.2193  14.2193  14.3241  14.3241  14.3877  14.3877  14.4992  14.4992
    14.7459  14.7459  14.7755  14.7755  14.8503  14.8503  14.9689  14.9689
    15.2671  15.2671  15.5860  15.5860  16.4861  16.4861  16.7956  16.7956
    16.8544  16.8544  16.9445  16.9445  17.0733  17.0733  17.3966  17.3966
    17.6583  17.6583  18.2954  18.2954  18.8703

          k =-0.3333 0.1925 0.0000 (  6250 PWs)   bands (ev):

   -41.5412 -41.5407 -34.6991 -34.6989 -22.8529 -22.8523 -22.8515 -22.8502
   -17.8854 -17.8821 -17.7987 -17.7967 -17.7770 -17.7698 -15.7936 -15.7916
    -0.9307  -0.8805  -0.8429  -0.7982   1.6948   1.7150   1.7291   1.7577
     3.2935   3.8700   9.3248   9.9183  10.7913  10.8451  11.2945  11.4020
    11.6941  11.7375  11.8533  11.9336  12.0077  12.1752  12.2511  12.4167
    12.4543  12.4722  12.7176  12.7185  12.7685  12.8031  12.8532  12.9323
    13.0717  13.0910  13.1115  13.2047  13.2411  13.3484  13.4171  13.4625
    13.5968  13.6506  13.6650  13.7545  13.8256  13.8579  13.8927  14.0542
    14.0599  14.0919  14.1141  14.1438  14.1716  14.2065  14.3160  14.3404
    14.4183  14.4385  14.5447  14.5498  14.6120  14.6904  14.7253  14.8003
    14.8421  15.1298  15.1781  15.2899  15.9902  15.9933  16.2108  16.4053
    16.6582  16.7793  16.8881  17.0100  17.0992  17.1715  17.5665  17.7757
    17.8309  17.8406  18.0986  18.4884  18.5646

          k = 0.3333 0.1925 0.0000 (  6250 PWs)   bands (ev):

   -41.5412 -41.5407 -34.6992 -34.6990 -22.8532 -22.8527 -22.8523 -22.8504
   -17.8874 -17.8841 -17.7952 -17.7935 -17.7782 -17.7708 -15.7918 -15.7903
    -0.9208  -0.8715  -0.8338  -0.8057   1.6706   1.6787   1.6806   1.7587
     3.4699   3.8790   9.1327  10.0400  10.2793  11.0356  11.2946  11.3519
    11.4955  11.7605  11.8467  11.8780  11.9881  12.1815  12.2611  12.4261
    12.4830  12.5323  12.5844  12.6596  12.6691  12.7076  12.7591  12.8488
    12.8989  12.9905  13.1253  13.1370  13.3231  13.3525  13.4642  13.5161
    13.5883  13.6569  13.7931  13.8386  13.8689  13.9279  13.9676  14.0552
    14.1369  14.1904  14.2052  14.2154  14.2446  14.2959  14.3239  14.3456
    14.4254  14.4579  14.5218  14.7609  14.8186  14.8763  14.9051  15.0123
    15.0144  15.1768  15.3181  15.5788  15.7885  16.3179  16.4470  16.4692
    16.6960  16.7233  16.8277  16.9760  17.0063  17.1495  17.4450  17.6226
    17.6237  17.9804  18.2204  18.3638  18.7475

          k =-0.3333 0.1925 0.1535 (  6249 PWs)   bands (ev):

   -41.5411 -41.5407 -34.6990 -34.6989 -22.8526 -22.8522 -22.8516 -22.8506
   -17.8849 -17.8826 -17.7984 -17.7970 -17.7760 -17.7709 -15.7931 -15.7920
    -0.9236  -0.8888  -0.8354  -0.8044   1.6968   1.7197   1.7250   1.7526
     3.3705   3.7765   9.4034   9.8333  10.8150  10.8794  11.3244  11.5275
    11.7013  11.7482  11.8391  11.9033  12.0075  12.2068  12.2464  12.3076
    12.4504  12.5466  12.6190  12.6636  12.7145  12.7392  12.8291  12.9026
    13.0892  13.1522  13.2195  13.2591  13.2912  13.4241  13.4505  13.5166
    13.5719  13.6329  13.6678  13.7279  13.8580  13.8748  13.9441  13.9534
    14.0078  14.0166  14.1107  14.1639  14.2007  14.2308  14.2635  14.3415
    14.3935  14.4050  14.5028  14.5604  14.6687  14.7078  14.7130  14.7825
    14.8403  14.9581  15.0610  15.1035  15.9672  16.1817  16.2971  16.4910
    16.6180  16.7674  16.8102  17.0292  17.0763  17.2394  17.6593  17.7796
    17.9147  18.0620  18.1469  18.2496  18.3563

          k = 0.3333 0.1925 0.1535 (  6249 PWs)   bands (ev):

   -41.5411 -41.5407 -34.6992 -34.6990 -22.8533 -22.8526 -22.8520 -22.8506
   -17.8869 -17.8846 -17.7950 -17.7938 -17.7771 -17.7719 -15.7918 -15.7904
    -0.9147  -0.8809  -0.8276  -0.8086   1.6601   1.6722   1.7036   1.7519
     3.5267   3.8159   9.1882   9.6793  10.7086  11.0296  11.2071  11.4566
    11.5757  11.7259  11.8010  11.9233  12.0187  12.1798  12.1997  12.3090
    12.3983  12.4762  12.5410  12.6576  12.7132  12.7574  12.7891  12.8427
    12.9913  13.0355  13.1281  13.2298  13.2685  13.3394  13.4434  13.5221
    13.5932  13.6865  13.7308  13.7963  13.8343  13.9193  13.9966  14.0441
    14.1398  14.1588  14.1830  14.1968  14.2609  14.3104  14.3745  14.4038
    14.4528  14.4816  14.5471  14.6894  14.7974  14.8455  14.8639  14.9361
    15.1307  15.1832  15.3810  15.4654  15.7939  16.2324  16.4582  16.5029
    16.6852  16.7108  16.8833  16.9494  16.9638  17.0570  17.4648  17.5775
    17.7622  17.9354  18.2645  18.3013  18.5326

          k =-0.3333 0.1925-0.3069 (  6240 PWs)   bands (ev):

   -41.5409 -41.5409 -34.6989 -34.6989 -22.8522 -22.8522 -22.8512 -22.8512
   -17.8837 -17.8837 -17.7977 -17.7977 -17.7734 -17.7734 -15.7925 -15.7925
    -0.9065  -0.9065  -0.8194  -0.8194   1.7066   1.7066   1.7394   1.7394
     3.5654   3.5654   9.6095   9.6095  10.8733  10.8733  11.5665  11.5665
    11.6985  11.6985  11.8229  11.8229  12.1104  12.1104  12.2780  12.2780
    12.4898  12.4898  12.5408  12.5408  12.7383  12.7383  12.8014  12.8014
    13.1727  13.1727  13.2813  13.2813  13.4344  13.4344  13.5413  13.5413
    13.6050  13.6050  13.7231  13.7231  13.8585  13.8585  13.9072  13.9072
    14.0170  14.0170  14.0824  14.0824  14.1912  14.1912  14.2629  14.2629
    14.3878  14.3878  14.5479  14.5479  14.6834  14.6834  14.7611  14.7611
    14.8115  14.8115  14.9692  14.9692  16.1239  16.1239  16.4400  16.4400
    16.6706  16.6706  16.9502  16.9502  17.2206  17.2206  17.6734  17.6734
    17.9412  17.9412  18.2360  18.2360  18.8523

          k = 0.3333 0.1925-0.3069 (  6240 PWs)   bands (ev):

   -41.5409 -41.5409 -34.6991 -34.6991 -22.8531 -22.8531 -22.8510 -22.8510
   -17.8857 -17.8857 -17.7944 -17.7944 -17.7745 -17.7745 -15.7911 -15.7911
    -0.8990  -0.8990  -0.8169  -0.8169   1.6613   1.6613   1.7323   1.7323
     3.6683   3.6683   9.3660   9.3660  10.9530  10.9530  11.4247  11.4247
    11.6555  11.6555  11.8544  11.8544  12.0630  12.0630  12.2222  12.2222
    12.3757  12.3757  12.5561  12.5561  12.7487  12.7487  12.8815  12.8815
    13.0405  13.0405  13.1920  13.1920  13.3676  13.3676  13.4332  13.4332
    13.5958  13.5958  13.7584  13.7584  13.8867  13.8867  14.0303  14.0303
    14.0910  14.0910  14.1983  14.1983  14.3494  14.3494  14.3762  14.3762
    14.4810  14.4810  14.5738  14.5738  14.8176  14.8176  14.9209  14.9209
    15.1844  15.1844  15.3463  15.3463  15.9697  15.9697  16.5634  16.5634
    16.7051  16.7051  16.8542  16.8542  17.0241  17.0241  17.5068  17.5068
    17.7057  17.7057  18.4209  18.4209  18.8170

          k = 0.5000-0.2887 0.0000 (  6248 PWs)   bands (ev):

   -41.5411 -41.5406 -34.6990 -34.6989 -22.8527 -22.8525 -22.8519 -22.8505
   -17.8859 -17.8828 -17.8005 -17.7986 -17.7772 -17.7700 -15.7929 -15.7926
    -0.9268  -0.8778  -0.8411  -0.7989   1.7091   1.7185   1.7207   1.7378
     3.3674   3.8859   9.6764  10.2926  10.3966  10.8990  11.3477  11.3861
    11.8824  11.9365  11.9558  11.9951  12.1469  12.3616  12.3794  12.4027
    12.4769  12.5687  12.7178  12.7793  12.8058  12.8350  12.8368  13.0134
    13.0682  13.1324  13.1615  13.1889  13.2975  13.3301  13.3590  13.3591
    13.4129  13.4268  13.5363  13.6636  13.7272  13.7799  13.7934  13.9197
    13.9785  13.9835  13.9846  13.9852  14.0023  14.1117  14.2266  14.2799
    14.2940  14.3598  14.3770  14.4396  14.4905  14.5676  14.5837  14.7131
    14.7679  14.8982  15.1534  15.1851  15.9068  15.9915  16.0268  16.1811
    16.5698  16.6608  16.7975  16.9986  17.0060  17.1455  17.5476  17.8180
    17.8470  17.8873  18.0570  18.7404  18.8970

          k =-0.5000-0.2887 0.0000 (  6248 PWs)   bands (ev):

   -41.5411 -41.5406 -34.6992 -34.6991 -22.8536 -22.8533 -22.8520 -22.8509
   -17.8887 -17.8854 -17.7958 -17.7944 -17.7788 -17.7714 -15.7912 -15.7900
    -0.9136  -0.8658  -0.8262  -0.8116   1.6491   1.6585   1.6946   1.7459
     3.6344   3.8611   9.3796   9.9738  10.7190  10.9263  11.0509  11.2977
    11.7160  11.7830  12.0347  12.0818  12.2701  12.2776  12.2985  12.3748
    12.3973  12.5451  12.5922  12.6639  12.6889  12.7485  12.7908  12.9118
    12.9553  12.9593  13.0324  13.1579  13.1866  13.2253  13.2957  13.3953
    13.4759  13.5042  13.5808  13.6485  13.8371  13.8404  13.8628  14.0853
    14.1020  14.1043  14.1532  14.1777  14.2431  14.2602  14.2781  14.3657
    14.3874  14.5039  14.5305  14.5640  14.7346  14.8378  14.8961  14.9794
    15.0044  15.0559  15.1499  15.2701  15.6788  16.2573  16.3007  16.3763
    16.5877  16.5940  16.7109  16.9231  16.9846  17.1373  17.4441  17.6676
    17.7316  18.1524  18.1904  18.3288  19.1213

          k = 0.5000-0.2887 0.1535 (  6254 PWs)   bands (ev):

   -41.5410 -41.5407 -34.6990 -34.6989 -22.8527 -22.8526 -22.8518 -22.8507
   -17.8855 -17.8832 -17.8003 -17.7988 -17.7762 -17.7711 -15.7929 -15.7927
    -0.9199  -0.8859  -0.8340  -0.8048   1.7056   1.7082   1.7314   1.7395
     3.4363   3.8016   9.7810  10.3467  10.3868  10.5592  11.4898  11.6129
    11.9295  11.9307  11.9747  11.9755  12.0882  12.3601  12.3848  12.4549
    12.4934  12.5350  12.6946  12.7569  12.7957  12.8292  12.8411  13.0065
    13.0612  13.0889  13.0918  13.2223  13.2468  13.3383  13.3765  13.4097
    13.4283  13.4626  13.5789  13.6793  13.7274  13.7799  13.8020  13.8672
    13.8846  13.9477  13.9755  14.0259  14.0671  14.0804  14.1471  14.2092
    14.3265  14.3416  14.4402  14.4841  14.5550  14.5657  14.6345  14.6857
    14.7223  14.8564  14.9174  15.0754  15.8969  16.0225  16.2433  16.2545
    16.5490  16.5981  16.6986  16.9591  17.0993  17.1978  17.7433  17.8102
    17.9515  18.0466  18.0596  18.4179  18.6314

          k =-0.5000-0.2887 0.1535 (  6254 PWs)   bands (ev):

   -41.5410 -41.5407 -34.6993 -34.6991 -22.8538 -22.8535 -22.8516 -22.8508
   -17.8882 -17.8859 -17.7957 -17.7946 -17.7777 -17.7725 -15.7913 -15.7902
    -0.9081  -0.8755  -0.8214  -0.8123   1.6435   1.6522   1.7091   1.7431
     3.6670   3.8277   9.4140   9.8296  10.6923  10.6933  11.4309  11.4643
    11.7358  11.7543  12.0328  12.0704  12.2050  12.2692  12.3282  12.3887
    12.4297  12.5608  12.6105  12.6424  12.6876  12.7119  12.8335  12.8455
    12.9539  12.9876  13.0662  13.1519  13.1566  13.2172  13.2837  13.3172
    13.4085  13.5705  13.6164  13.6852  13.7957  13.8542  13.8630  13.9953
    14.0931  14.1085  14.1504  14.1863  14.2087  14.2961  14.3273  14.4142
    14.4396  14.5043  14.5058  14.5725  14.6092  14.8084  14.8546  14.9495
    15.0477  15.1071  15.2413  15.3385  15.6874  15.9980  16.3578  16.4021
    16.5917  16.5967  16.7513  16.8764  16.9847  17.0783  17.6344  17.6520
    17.6699  18.0862  18.3119  18.4784  18.5593

          k = 0.5000-0.2887-0.3069 (  6272 PWs)   bands (ev):

   -41.5408 -41.5408 -34.6990 -34.6990 -22.8526 -22.8526 -22.8514 -22.8514
   -17.8843 -17.8843 -17.7996 -17.7996 -17.7737 -17.7737 -15.7930 -15.7930
    -0.9033  -0.9033  -0.8190  -0.8190   1.7030   1.7030   1.7383   1.7383
     3.6112   3.6112  10.0817  10.0817  10.4087  10.4087  11.7513  11.7513
    11.8551  11.8551  11.9651  11.9651  12.2364  12.2364  12.4415  12.4415
    12.5120  12.5120  12.7099  12.7099  12.7894  12.7894  12.9271  12.9271
    13.0502  13.0502  13.0856  13.0856  13.3318  13.3318  13.3883  13.3883
    13.5823  13.5823  13.6362  13.6362  13.6833  13.6833  13.8147  13.8147
    13.9058  13.9058  13.9865  13.9865  14.0706  14.0706  14.1529  14.1529
    14.3431  14.3431  14.4618  14.4618  14.5340  14.5340  14.6746  14.6746
    14.7858  14.7858  14.8761  14.8761  15.9674  15.9674  16.3925  16.3925
    16.4967  16.4967  16.8225  16.8225  17.2054  17.2054  17.8352  17.8352
    18.0531  18.0531  18.2468  18.2468  18.6166

          k =-0.5000-0.2887-0.3069 (  6272 PWs)   bands (ev):

   -41.5408 -41.5408 -34.6992 -34.6992 -22.8540 -22.8540 -22.8512 -22.8512
   -17.8871 -17.8871 -17.7951 -17.7951 -17.7752 -17.7752 -15.7907 -15.7907
    -0.8935  -0.8935  -0.8154  -0.8154   1.6429   1.6429   1.7308   1.7308
     3.7470   3.7470   9.5667   9.5667  10.6532  10.6532  11.6152  11.6152
    11.8021  11.8021  12.0610  12.0610  12.1247  12.1247  12.3858  12.3858
    12.4952  12.4952  12.5855  12.5855  12.7979  12.7979  12.8933  12.8933
    12.9037  12.9037  13.0519  13.0519  13.1772  13.1772  13.3040  13.3040
    13.4581  13.4581  13.7055  13.7055  13.8275  13.8275  13.8948  13.8948
    14.0689  14.0689  14.1168  14.1168  14.3020  14.3020  14.3747  14.3747
    14.4826  14.4826  14.5382  14.5382  14.7299  14.7299  14.9196  14.9196
    15.0221  15.0221  15.3875  15.3875  15.7305  15.7305  16.4326  16.4326
    16.6039  16.6039  16.8026  16.8026  17.0207  17.0207  17.6580  17.6580
    17.7523  17.7523  18.4960  18.4964  18.6143

          k =-0.1667 0.2887 0.0000 (  6240 PWs)   bands (ev):

   -41.5412 -41.5407 -34.6992 -34.6987 -22.8530 -22.8518 -22.8510 -22.8501
   -17.8850 -17.8815 -17.7976 -17.7958 -17.7771 -17.7696 -15.7936 -15.7917
    -0.9327  -0.8839  -0.8420  -0.7997   1.6869   1.7211   1.7440   1.7648
     3.2549   3.8186   9.3089   9.7735  10.7601  11.0717  11.2474  11.4651
    11.5570  11.5819  11.6698  11.8892  12.1151  12.1834  12.2319  12.3512
    12.4675  12.5041  12.5867  12.6908  12.7231  12.8184  12.8203  12.9261
    12.9698  13.1105  13.1531  13.1734  13.2868  13.3112  13.3454  13.4179
    13.5457  13.5633  13.6863  13.7136  13.8657  13.9211  14.0724  14.0821
    14.1154  14.1402  14.1659  14.1666  14.2806  14.3264  14.3639  14.4025
    14.4394  14.5931  14.6055  14.6756  14.6813  14.7325  14.7717  14.8231
    14.8491  15.2529  15.3869  15.4694  15.6671  16.1392  16.2811  16.6820
    16.8396  16.8563  16.9827  17.0598  17.1050  17.1470  17.5100  17.7768
    17.8333  18.0300  18.1164  18.2645  18.5467

          k = 0.3333 0.0000 0.0000 (  6240 PWs)   bands (ev):

   -41.5412 -41.5407 -34.6991 -34.6988 -22.8530 -22.8526 -22.8517 -22.8501
   -17.8861 -17.8827 -17.7962 -17.7944 -17.7774 -17.7700 -15.7924 -15.7908
    -0.9282  -0.8772  -0.8409  -0.8000   1.6801   1.6974   1.7076   1.7631
     3.3314   3.8866   9.1015   9.8131  10.5000  11.1878  11.2354  11.4046
    11.4906  11.6522  11.6640  11.8723  12.0134  12.0717  12.1767  12.4007
    12.4336  12.4719  12.6117  12.6807  12.6993  12.7736  12.8723  12.8732
    12.9522  13.0970  13.1870  13.1950  13.2463  13.3997  13.4990  13.5414
    13.7199  13.7456  13.7739  13.8213  13.8355  13.9044  13.9290  14.0360
    14.0832  14.1905  14.1964  14.2509  14.2513  14.3244  14.3928  14.4323
    14.4376  14.4723  14.6232  14.6940  14.8233  14.8267  14.9419  14.9458
    15.0694  15.1559  15.3639  15.4350  15.7518  16.2094  16.2525  16.5861
    16.7608  16.8577  16.9655  17.0138  17.1072  17.3476  17.4941  17.5606
    17.7135  17.9321  18.1260  18.2165  18.6300

          k =-0.1667 0.2887 0.1535 (  6242 PWs)   bands (ev):

   -41.5411 -41.5408 -34.6991 -34.6988 -22.8525 -22.8518 -22.8511 -22.8504
   -17.8845 -17.8820 -17.7974 -17.7962 -17.7760 -17.7708 -15.7934 -15.7921
    -0.9261  -0.8921  -0.8347  -0.8054   1.6964   1.7245   1.7402   1.7524
     3.3314   3.7282   9.3691   9.6954  10.9444  11.0516  11.1823  11.4910
    11.5435  11.6738  11.7053  11.9052  12.1001  12.1816  12.2095  12.2610
    12.4028  12.4504  12.5477  12.6598  12.6890  12.7040  12.7812  12.8823
    13.0953  13.1774  13.1993  13.2875  13.3123  13.3615  13.4595  13.5360
    13.5561  13.5859  13.7003  13.7433  13.8752  13.9215  13.9839  14.0498
    14.0701  14.1211  14.1537  14.1974  14.2247  14.2990  14.3572  14.4085
    14.4473  14.5012  14.5761  14.6315  14.6983  14.7128  14.7683  14.8113
    14.8904  15.0101  15.1734  15.2519  16.0620  16.2916  16.4105  16.6560
    16.6860  16.8744  16.9333  17.0851  17.1428  17.1748  17.4969  17.6847
    17.9313  17.9724  18.0727  18.4762  18.6311

          k = 0.3333 0.0000 0.1535 (  6242 PWs)   bands (ev):

   -41.5411 -41.5408 -34.6991 -34.6989 -22.8530 -22.8521 -22.8518 -22.8504
   -17.8855 -17.8832 -17.7960 -17.7947 -17.7763 -17.7711 -15.7923 -15.7911
    -0.9213  -0.8860  -0.8335  -0.8053   1.6778   1.6996   1.7126   1.7559
     3.4061   3.7974   9.1712   9.6290  10.7892  11.2082  11.2667  11.3680
    11.4819  11.6274  11.7027  11.8840  11.9969  12.0714  12.1706  12.2674
    12.3886  12.4540  12.5753  12.6441  12.6968  12.7468  12.8103  12.9592
    12.9759  13.1340  13.2011  13.3005  13.3737  13.4297  13.4559  13.5825
    13.6604  13.6969  13.7450  13.7843  13.8918  13.9016  13.9679  14.0470
    14.0744  14.1625  14.1727  14.2593  14.2975  14.3428  14.3596  14.4195
    14.4359  14.5200  14.5989  14.7011  14.7601  14.8350  14.8520  14.9049
    14.9982  15.1138  15.2586  15.3116  15.8966  16.2144  16.3304  16.5834
    16.8064  16.8535  16.9769  16.9894  17.0800  17.1603  17.5991  17.6163
    17.8501  17.9951  18.0589  18.3814  18.4547

          k =-0.1667 0.2887-0.3069 (  6252 PWs)   bands (ev):

   -41.5410 -41.5410 -34.6990 -34.6990 -22.8518 -22.8518 -22.8511 -22.8511
   -17.8833 -17.8833 -17.7968 -17.7968 -17.7734 -17.7734 -15.7930 -15.7930
    -0.9095  -0.9095  -0.8196  -0.8196   1.7208   1.7208   1.7341   1.7341
     3.5228   3.5228   9.5246   9.5246  11.0537  11.0537  11.3525  11.3525
    11.6194  11.6194  11.9036  11.9036  12.0086  12.0086  12.2656  12.2656
    12.3825  12.3825  12.5376  12.5376  12.6429  12.6429  12.7865  12.7865
    13.2297  13.2297  13.3186  13.3186  13.4299  13.4299  13.5274  13.5274
    13.6885  13.6885  13.7284  13.7284  13.8620  13.8620  13.9518  13.9518
    14.0596  14.0596  14.1720  14.1720  14.2563  14.2563  14.2883  14.2883
    14.4929  14.4929  14.5457  14.5457  14.7225  14.7225  14.7936  14.7936
    14.8882  14.8882  15.0368  15.0368  16.4415  16.4415  16.5019  16.5019
    16.7204  16.7204  17.0404  17.0404  17.1680  17.1680  17.5062  17.5062
    17.9398  17.9398  18.3729  18.3730  18.9640

          k = 0.3333 0.0000-0.3069 (  6252 PWs)   bands (ev):

   -41.5410 -41.5410 -34.6990 -34.6990 -22.8526 -22.8526 -22.8512 -22.8512
   -17.8844 -17.8844 -17.7953 -17.7953 -17.7737 -17.7737 -15.7918 -15.7918
    -0.9044  -0.9044  -0.8187  -0.8187   1.6848   1.6848   1.7367   1.7367
     3.5946   3.5946   9.3637   9.3637  11.1714  11.1714  11.2966  11.2966
    11.5497  11.5497  11.7821  11.7821  12.0370  12.0370  12.1660  12.1660
    12.3803  12.3803  12.5532  12.5532  12.7102  12.7102  12.8694  12.8694
    13.1160  13.1160  13.2905  13.2905  13.4659  13.4659  13.5578  13.5578
    13.6520  13.6520  13.7822  13.7822  13.8978  13.8978  13.9937  13.9937
    14.1043  14.1043  14.1886  14.1886  14.3016  14.3016  14.3808  14.3808
    14.4821  14.4821  14.6435  14.6435  14.7756  14.7756  14.8295  14.8295
    15.0382  15.0382  15.1892  15.1892  16.1031  16.1031  16.4959  16.4959
    16.8323  16.8323  17.0005  17.0005  17.0710  17.0710  17.6678  17.6678
    17.7481  17.7481  18.4577  18.4577  18.9734

          k =-0.3333 0.3849 0.0000 (  6247 PWs)   bands (ev):

   -41.5411 -41.5406 -34.6991 -34.6988 -22.8526 -22.8524 -22.8519 -22.8506
   -17.8862 -17.8827 -17.8001 -17.7982 -17.7775 -17.7702 -15.7931 -15.7922
    -0.9258  -0.8782  -0.8389  -0.8011   1.7057   1.7159   1.7199   1.7422
     3.3849   3.8566   9.7969  10.2946  10.4692  10.8724  11.1865  11.4867
    11.6220  11.8508  11.9611  12.1170  12.2672  12.3499  12.3569  12.4329
    12.5036  12.5931  12.6221  12.7532  12.8167  12.8814  12.8851  12.9806
    13.0317  13.0378  13.0830  13.1441  13.2107  13.2740  13.2916  13.3136
    13.3928  13.4246  13.5617  13.6624  13.7079  13.7405  13.8446  13.8722
    13.9000  13.9935  14.0627  14.0956  14.1454  14.1799  14.2436  14.2798
    14.3487  14.3840  14.4094  14.4987  14.5380  14.5590  14.6213  14.7232
    14.7416  14.9851  15.0426  15.1657  15.6250  16.0362  16.1582  16.5193
    16.6784  16.7267  16.8643  16.9444  17.0356  17.0489  17.5043  17.8426
    17.8809  17.9689  18.2762  18.4033  18.8423

          k = 0.5000 0.0962 0.0000 (  6247 PWs)   bands (ev):

   -41.5411 -41.5406 -34.6991 -34.6989 -22.8534 -22.8528 -22.8522 -22.8508
   -17.8880 -17.8847 -17.7971 -17.7953 -17.7784 -17.7710 -15.7919 -15.7905
    -0.9169  -0.8688  -0.8315  -0.8069   1.6634   1.6731   1.6988   1.7458
     3.5514   3.8836   9.4131  10.1846  10.4785  11.0652  11.2901  11.3837
    11.4669  11.7889  11.9161  12.0163  12.2052  12.2882  12.3568  12.4027
    12.5619  12.5722  12.6150  12.6332  12.7189  12.7746  12.8413  12.8733
    12.9234  12.9461  13.0687  13.1010  13.2423  13.3167  13.3394  13.3570
    13.4350  13.4821  13.5983  13.6453  13.7625  13.7718  13.9014  14.0411
    14.0837  14.1318  14.1446  14.1488  14.1973  14.2238  14.3060  14.3453
    14.3709  14.4289  14.5314  14.6537  14.7460  14.7701  14.8113  14.8947
    14.8972  15.0006  15.1321  15.1373  15.6351  15.9559  16.2256  16.4550
    16.6909  16.7285  16.8355  16.9437  16.9668  17.1427  17.4223  17.6797
    17.7508  18.0727  18.2171  18.5961  19.2183

          k =-0.3333-0.3849 0.0000 (  6247 PWs)   bands (ev):

   -41.5411 -41.5406 -34.6992 -34.6989 -22.8533 -22.8527 -22.8520 -22.8509
   -17.8881 -17.8848 -17.7967 -17.7949 -17.7786 -17.7712 -15.7919 -15.7904
    -0.9159  -0.8692  -0.8267  -0.8114   1.6616   1.6716   1.6961   1.7483
     3.6018   3.8246   9.4205  10.1992  10.5580  11.0667  11.1635  11.3375
    11.5251  11.7927  11.9760  12.0294  12.2171  12.3131  12.3931  12.3995
    12.4896  12.5615  12.6141  12.6588  12.7189  12.7722  12.8151  12.8160
    12.8789  12.8996  13.0579  13.1252  13.1473  13.2271  13.2903  13.2931
    13.3972  13.4592  13.7296  13.7519  13.7866  13.8242  13.9006  14.0221
    14.0493  14.0939  14.1486  14.1647  14.2656  14.2711  14.3166  14.3690
    14.3705  14.3966  14.5459  14.6715  14.7537  14.7806  14.7957  14.8968
    15.0085  15.0741  15.0904  15.2136  15.8146  15.8518  16.3310  16.3956
    16.5828  16.6998  16.8544  16.9134  16.9378  17.0280  17.4085  17.7196
    17.7199  18.0390  18.2609  18.8560  18.9594

          k = 0.5000-0.0962 0.0000 (  6247 PWs)   bands (ev):

   -41.5411 -41.5406 -34.6991 -34.6989 -22.8530 -22.8524 -22.8522 -22.8506
   -17.8866 -17.8834 -17.7994 -17.7974 -17.7776 -17.7704 -15.7927 -15.7917
    -0.9235  -0.8748  -0.8384  -0.8012   1.6938   1.7030   1.7106   1.7431
     3.4234   3.8907   9.5431  10.3251  10.5976  10.7704  11.3962  11.4863
    11.5460  11.8295  11.8306  12.0116  12.2613  12.2717  12.4011  12.4849
    12.5359  12.6207  12.6595  12.6954  12.7370  12.8194  12.8868  12.9392
    12.9411  13.0001  13.1306  13.1671  13.2375  13.3153  13.3227  13.3877
    13.4686  13.5499  13.5554  13.5810  13.7313  13.8318  13.8435  13.9028
    13.9695  14.0131  14.0510  14.1136  14.1399  14.2170  14.2905  14.3069
    14.3252  14.3515  14.5052  14.5299  14.5755  14.5894  14.7231  14.7660
    14.8651  14.8826  15.0025  15.0831  15.6113  16.0442  16.0797  16.5295
    16.5821  16.7195  16.8385  16.9357  17.0416  17.1547  17.4926  17.7739
    17.8119  17.9327  18.2145  18.3916  18.9403

          k =-0.1667 0.4811 0.0000 (  6247 PWs)   bands (ev):

   -41.5411 -41.5406 -34.6992 -34.6988 -22.8524 -22.8522 -22.8516 -22.8508
   -17.8865 -17.8830 -17.7993 -17.7975 -17.7779 -17.7705 -15.7932 -15.7920
    -0.9238  -0.8792  -0.8329  -0.8068   1.7011   1.7103   1.7174   1.7474
     3.4528   3.7726   9.8141  10.3957  10.4042  10.9388  11.2818  11.4300
    11.5626  11.9072  11.9875  12.1312  12.1858  12.2165  12.3472  12.4997
    12.5470  12.5739  12.6806  12.7231  12.7807  12.8369  12.8418  12.9391
    13.0005  13.0016  13.0155  13.0554  13.1175  13.1367  13.2820  13.3290
    13.4417  13.5140  13.5699  13.5708  13.6959  13.7229  13.8441  13.9068
    13.9634  14.0224  14.0515  14.1243  14.1818  14.2218  14.2529  14.3141
    14.3405  14.3914  14.4003  14.5085  14.5543  14.6056  14.7050  14.7937
    14.7993  14.9760  15.0497  15.2639  15.7392  16.1441  16.2957  16.4808
    16.5593  16.6686  16.8346  16.8395  17.0658  17.1413  17.3771  17.8086
    17.8716  18.0419  18.0610  18.6578  18.7012

          k =-0.3333 0.3849 0.1535 (  6255 PWs)   bands (ev):

   -41.5410 -41.5407 -34.6991 -34.6989 -22.8526 -22.8524 -22.8517 -22.8508
   -17.8856 -17.8832 -17.7998 -17.7984 -17.7765 -17.7713 -15.7931 -15.7925
    -0.9193  -0.8863  -0.8323  -0.8061   1.7036   1.7114   1.7266   1.7408
     3.4484   3.7811   9.8807  10.2510  10.4612  10.7543  11.1960  11.5905
    11.7235  11.8907  12.0147  12.1022  12.2131  12.3309  12.3781  12.4274
    12.5019  12.5562  12.6721  12.7025  12.7554  12.8343  12.8928  12.9528
    12.9814  13.0450  13.1025  13.1992  13.2371  13.3159  13.3334  13.3661
    13.4408  13.5026  13.5402  13.6730  13.6973  13.7482  13.8203  13.8668
    13.8916  13.9612  13.9892  14.0425  14.0892  14.1620  14.1681  14.2465
    14.2919  14.3664  14.4537  14.4752  14.5624  14.5924  14.6554  14.7295
    14.7706  14.8845  14.9611  15.0526  15.8734  16.1236  16.2151  16.5088
    16.5609  16.6771  16.9142  17.0014  17.0358  17.1138  17.5470  17.8553
    17.9793  18.0344  18.2756  18.3452  18.5495

          k = 0.5000 0.0962 0.1535 (  6255 PWs)   bands (ev):

   -41.5410 -41.5407 -34.6991 -34.6990 -22.8537 -22.8531 -22.8517 -22.8509
   -17.8876 -17.8852 -17.7968 -17.7955 -17.7774 -17.7722 -15.7917 -15.7906
    -0.9111  -0.8780  -0.8258  -0.8093   1.6578   1.6663   1.7130   1.7437
     3.5978   3.8326   9.4666   9.9168  10.7203  10.9677  11.2495  11.3997
    11.6749  11.7799  11.9708  12.0618  12.1894  12.2508  12.3588  12.4229
    12.5229  12.5464  12.5894  12.6359  12.7161  12.7222  12.8576  12.9039
    12.9264  12.9890  13.0561  13.1550  13.1996  13.2732  13.3293  13.3806
    13.4331  13.5202  13.5742  13.6883  13.7535  13.7821  13.8519  13.9817
    14.0664  14.1084  14.1502  14.1708  14.2111  14.2159  14.2714  14.3500
    14.3695  14.4464  14.5495  14.6070  14.6440  14.7314  14.7768  14.8828
    15.0201  15.0363  15.1012  15.1951  15.6863  15.9400  16.2515  16.4708
    16.6588  16.6933  16.8266  16.9212  17.0169  17.0833  17.6461  17.6752
    17.7505  18.0449  18.3981  18.5190  18.7240

          k =-0.3333-0.3849-0.1535 (  6255 PWs)   bands (ev):

   -41.5410 -41.5407 -34.6991 -34.6990 -22.8536 -22.8531 -22.8517 -22.8509
   -17.8877 -17.8853 -17.7964 -17.7952 -17.7776 -17.7724 -15.7917 -15.7906
    -0.9104  -0.8785  -0.8222  -0.8125   1.6565   1.6657   1.7103   1.7449
     3.6343   3.7920   9.4531   9.9207  10.7092  10.9577  11.3866  11.4509
    11.5517  11.7508  12.0105  12.0989  12.1754  12.2999  12.3524  12.4218
    12.4924  12.5079  12.6066  12.6563  12.7078  12.7471  12.7812  12.8536
    12.8701  12.9938  13.0370  13.1285  13.1689  13.1984  13.2356  13.3395
    13.4197  13.5658  13.6156  13.6748  13.7900  13.8512  13.8928  13.9548
    14.0392  14.0840  14.1306  14.2273  14.2766  14.3041  14.3273  14.3525
    14.3637  14.4180  14.5566  14.5702  14.7323  14.7719  14.8045  14.9179
    14.9881  15.0766  15.1487  15.1883  15.8315  15.8745  16.3253  16.4463
    16.5086  16.7393  16.7740  16.9001  17.0047  17.0309  17.5652  17.6635
    17.7693  17.9411  18.2362  18.4576  18.8563

          k = 0.5000-0.0962-0.1535 (  6255 PWs)   bands (ev):

   -41.5410 -41.5407 -34.6991 -34.6989 -22.8531 -22.8525 -22.8518 -22.8508
   -17.8862 -17.8838 -17.7991 -17.7977 -17.7766 -17.7715 -15.7927 -15.7920
    -0.9169  -0.8832  -0.8317  -0.8060   1.6883   1.6953   1.7231   1.7427
     3.4862   3.8157   9.6250  10.1106  10.7297  10.8446  11.2456  11.4739
    11.7113  11.8267  11.9328  12.0486  12.1895  12.3486  12.3724  12.4680
    12.5278  12.6078  12.6221  12.6510  12.7335  12.7819  12.8473  12.9290
    12.9900  13.0677  13.1447  13.1772  13.2476  13.3390  13.3652  13.3885
    13.4190  13.4835  13.5955  13.6787  13.7244  13.8114  13.8236  13.8477
    13.9079  13.9985  14.0446  14.0796  14.1320  14.1991  14.2287  14.3125
    14.3237  14.4130  14.4849  14.5245  14.5991  14.6563  14.7226  14.7649
    14.7771  14.8266  14.9307  15.0287  15.7712  16.0806  16.1252  16.4832
    16.5791  16.6800  16.8822  16.9724  17.0086  17.1701  17.7012  17.8076
    17.8333  17.9749  18.2078  18.4638  18.6309

          k =-0.1667 0.4811-0.1535 (  6255 PWs)   bands (ev):

   -41.5410 -41.5407 -34.6992 -34.6989 -22.8524 -22.8523 -22.8515 -22.8509
   -17.8859 -17.8835 -17.7991 -17.7978 -17.7769 -17.7716 -15.7932 -15.7923
    -0.9180  -0.8871  -0.8277  -0.8098   1.7022   1.7096   1.7213   1.7424
     3.4978   3.7237   9.8218  10.1070  10.7180  10.8106  11.3316  11.5106
    11.6209  11.9810  12.0515  12.1583  12.2022  12.2041  12.3418  12.4294
    12.5013  12.5741  12.6260  12.6773  12.7351  12.8046  12.8634  12.8969
    12.9474  12.9855  13.0531  13.1265  13.1632  13.2193  13.3216  13.3384
    13.5122  13.5147  13.5222  13.6353  13.7088  13.7597  13.8010  13.8456
    13.9158  13.9863  14.0408  14.0837  14.1607  14.1913  14.2261  14.2664
    14.3504  14.3989  14.4614  14.5398  14.5830  14.6149  14.6554  14.7538
    14.8286  14.9175  15.0472  15.1412  15.9287  16.1296  16.3289  16.4373
    16.5234  16.6588  16.8339  16.8616  17.0922  17.1208  17.5095  17.7170
    17.9172  17.9459  18.0360  18.5783  18.8253

          k =-0.3333 0.3849-0.3069 (  6250 PWs)   bands (ev):

   -41.5408 -41.5408 -34.6990 -34.6990 -22.8525 -22.8525 -22.8512 -22.8512
   -17.8844 -17.8844 -17.7992 -17.7992 -17.7739 -17.7739 -15.7928 -15.7928
    -0.9033  -0.9033  -0.8186  -0.8186   1.7051   1.7051   1.7357   1.7357
     3.6090   3.6090  10.0904  10.0904  10.5177  10.5177  11.4629  11.4629
    11.8874  11.8874  12.1007  12.1007  12.2198  12.2198  12.4330  12.4330
    12.4840  12.4840  12.6985  12.6985  12.7365  12.7365  12.8941  12.8941
    13.0148  13.0148  13.1687  13.1687  13.2857  13.2857  13.4562  13.4562
    13.5514  13.5514  13.6272  13.6272  13.6742  13.6742  13.7906  13.7906
    13.8836  13.8836  13.9650  13.9650  14.0836  14.0836  14.1891  14.1891
    14.2807  14.2807  14.4958  14.4958  14.5713  14.5713  14.6909  14.6909
    14.8617  14.8617  14.9064  14.9064  16.1517  16.1517  16.3568  16.3568
    16.5589  16.5589  16.9993  16.9993  17.1456  17.1456  17.7228  17.7228
    17.9372  17.9372  18.2937  18.2937  18.9149

          k = 0.5000 0.0962-0.3069 (  6250 PWs)   bands (ev):

   -41.5408 -41.5408 -34.6990 -34.6990 -22.8536 -22.8536 -22.8511 -22.8511
   -17.8864 -17.8864 -17.7962 -17.7962 -17.7748 -17.7748 -15.7910 -15.7910
    -0.8958  -0.8958  -0.8163  -0.8163   1.6574   1.6574   1.7330   1.7330
     3.7132   3.7132   9.6365   9.6365  10.8406  10.8406  11.3834  11.3834
    11.8222  11.8222  12.0399  12.0399  12.1757  12.1757  12.4194  12.4194
    12.4552  12.4552  12.5764  12.5764  12.7993  12.7993  12.8853  12.8853
    12.9760  12.9760  13.0709  13.0709  13.2311  13.2311  13.3569  13.3569
    13.4602  13.4602  13.6508  13.6508  13.8195  13.8195  13.8556  13.8556
    14.0333  14.0333  14.1603  14.1603  14.2102  14.2102  14.2938  14.2938
    14.4648  14.4648  14.5085  14.5085  14.6792  14.6792  14.8492  14.8492
    15.0056  15.0056  15.1733  15.1733  15.8604  15.8604  16.3854  16.3854
    16.6147  16.6147  16.8992  16.8992  17.0651  17.0651  17.6695  17.6695
    17.9032  17.9032  18.5699  18.5700  18.7608

          k =-0.3333-0.3849 0.3069 (  6250 PWs)   bands (ev):

   -41.5408 -41.5408 -34.6990 -34.6990 -22.8535 -22.8535 -22.8511 -22.8511
   -17.8865 -17.8865 -17.7958 -17.7958 -17.7750 -17.7750 -15.7910 -15.7910
    -0.8959  -0.8959  -0.8159  -0.8159   1.6569   1.6569   1.7319   1.7319
     3.7132   3.7132   9.6067   9.6067  10.8481  10.8481  11.4583  11.4583
    11.8172  11.8172  12.0183  12.0183  12.2112  12.2112  12.4069  12.4069
    12.4359  12.4359  12.5898  12.5898  12.7695  12.7695  12.8650  12.8650
    12.9151  12.9151  13.0614  13.0614  13.1827  13.1827  13.3614  13.3614
    13.4126  13.4126  13.6707  13.6707  13.8011  13.8011  13.8896  13.8896
    14.0495  14.0495  14.2080  14.2080  14.2627  14.2627  14.3443  14.3443
    14.4298  14.4298  14.5280  14.5280  14.7218  14.7218  14.8959  14.8959
    15.0293  15.0293  15.1611  15.1611  15.8823  15.8823  16.3796  16.3796
    16.5917  16.5917  16.8366  16.8366  17.0862  17.0862  17.5804  17.5804
    17.7305  17.7305  18.4704  18.4705  18.9900

          k = 0.5000-0.0962 0.3069 (  6250 PWs)   bands (ev):

   -41.5408 -41.5408 -34.6990 -34.6990 -22.8529 -22.8529 -22.8512 -22.8512
   -17.8850 -17.8850 -17.7984 -17.7984 -17.7740 -17.7740 -15.7922 -15.7922
    -0.9007  -0.9007  -0.8181  -0.8181   1.6875   1.6875   1.7369   1.7369
     3.6452   3.6452   9.8399   9.8399  10.7894  10.7894  11.4157  11.4157
    11.7996  11.7996  12.0191  12.0191  12.2684  12.2684  12.4213  12.4213
    12.5152  12.5152  12.6478  12.6478  12.7319  12.7319  12.9119  12.9119
    13.0181  13.0181  13.1582  13.1582  13.3018  13.3018  13.3861  13.3861
    13.5349  13.5349  13.5979  13.5979  13.7555  13.7555  13.8121  13.8121
    13.9315  13.9315  14.0221  14.0221  14.1429  14.1429  14.2611  14.2611
    14.3878  14.3878  14.4952  14.4952  14.6184  14.6184  14.6914  14.6914
    14.8578  14.8578  14.9092  14.9092  15.9895  15.9895  16.3250  16.3250
    16.6154  16.6154  16.9453  16.9453  17.1036  17.1036  17.8138  17.8138
    18.0416  18.0416  18.2474  18.2474  18.7792

          k =-0.1667 0.4811 0.3069 (  6250 PWs)   bands (ev):

   -41.5408 -41.5408 -34.6990 -34.6990 -22.8524 -22.8524 -22.8511 -22.8511
   -17.8847 -17.8847 -17.7984 -17.7984 -17.7742 -17.7742 -15.7928 -15.7928
    -0.9034  -0.9034  -0.8179  -0.8179   1.7059   1.7059   1.7317   1.7317
     3.6089   3.6089   9.9067   9.9067  10.7862  10.7862  11.4180  11.4180
    11.9569  11.9569  12.1313  12.1313  12.2560  12.2560  12.2929  12.2929
    12.4889  12.4889  12.6369  12.6369  12.6926  12.6926  12.9178  12.9178
    12.9478  12.9478  13.1229  13.1229  13.2167  13.2167  13.3811  13.3811
    13.5688  13.5688  13.6168  13.6168  13.6500  13.6500  13.8103  13.8103
    13.9228  13.9228  14.0494  14.0494  14.1547  14.1547  14.2070  14.2070
    14.3516  14.3516  14.5312  14.5312  14.6072  14.6072  14.6931  14.6931
    14.9113  14.9113  14.9953  14.9953  16.1654  16.1654  16.3225  16.3225
    16.5822  16.5822  16.8713  16.8713  17.0487  17.0487  17.6058  17.6058
    17.9315  17.9315  18.3373  18.3373  19.0625

     the Fermi energy is    15.6654 ev

!    total energy              =   -1471.31691902 Ry
     estimated scf accuracy    <          4.4E-09 Ry
     smearing contrib. (-TS)   =       0.00886610 Ry
     internal energy E=F+TS    =   -1471.32578512 Ry

     The total energy is F=E-TS. E is the sum of the following terms:
     one-electron contribution =    -396.79067975 Ry
     hartree contribution      =     391.17478086 Ry
     xc contribution           =    -447.29305228 Ry
     ewald contribution        =   -1018.41683395 Ry

     convergence has been achieved in  24 iterations

     Writing all to output data dir ./outdir/ni3ti.save/ :
     XML data file, charge density, pseudopotentials, collected wavefunctions

     init_run     :    258.68s CPU     85.59s WALL (       1 calls)
     electrons    :  22903.87s CPU   5783.97s WALL (       1 calls)

     Called by init_run:
     wfcinit      :    244.57s CPU     81.93s WALL (       1 calls)
     potinit      :      1.09s CPU      0.91s WALL (       1 calls)
     hinit0       :      1.32s CPU      1.13s WALL (       1 calls)

     Called by electrons:
     c_bands      :  19642.61s CPU   4790.60s WALL (      24 calls)
     sum_band     :   3156.70s CPU    972.17s WALL (      24 calls)
     v_of_rho     :      3.24s CPU      1.10s WALL (      25 calls)
     newd         :    110.31s CPU     21.14s WALL (      25 calls)
     mix_rho      :      0.42s CPU      0.22s WALL (      24 calls)

     Called by c_bands:
     init_us_2    :    278.11s CPU     25.47s WALL (    2940 calls)
     cegterg      :  18652.09s CPU   4700.86s WALL (    1440 calls)

     Called by *egterg:
     cdiaghg      :   2862.54s CPU    267.36s WALL (    5585 calls)
     h_psi        :  11969.82s CPU   4143.16s WALL (    5645 calls)
     s_psi        :    563.41s CPU     52.90s WALL (    5645 calls)
     g_psi        :    159.22s CPU     14.60s WALL (    4145 calls)

     Called by h_psi:
     h_psi:calbec :   1055.74s CPU    100.64s WALL (    5645 calls)
     vloc_psi     :  10273.73s CPU   3984.62s WALL (    5645 calls)
                                        0.00s GPU  (    5645 calls)
     add_vuspsi   :    484.00s CPU     43.73s WALL (    5645 calls)

     General routines
     calbec       :   1343.34s CPU    128.04s WALL (    7085 calls)
     fft          :      2.50s CPU      1.08s WALL (     323 calls)
     ffts         :      2.13s CPU      0.93s WALL (      49 calls)
     fftw         :  12530.28s CPU   4746.98s WALL (  825040 calls)
     interpolate  :      1.14s CPU      0.88s WALL (      25 calls)

     Parallel routines

     PWSCF        :      6h26m CPU      1h37m WALL


   This run was terminated on:   0:40:17  13Jun2026            

=------------------------------------------------------------------------------=
   JOB DONE.
=------------------------------------------------------------------------------=
