
     Program PWSCF v.7.5 starts on 13Jun2026 at 19:15:10 

     This program is part of the open-source Quantum ESPRESSO suite
     for quantum simulation of materials; please cite
         "P. Giannozzi et al., J. Phys.:Condens. Matter 21 395502 (2009);
         "P. Giannozzi et al., J. Phys.:Condens. Matter 29 465901 (2017);
         "P. Giannozzi et al., J. Chem. Phys. 152 154105 (2020);
          URL http://www.quantum-espresso.org", 
     in publications or presentations arising from this work. More details at
     http://www.quantum-espresso.org/quote

     Parallel version (MPI & OpenMP), running on      12 processor cores
     Number of MPI processes:                 1
     Threads/MPI process:                    12

     MPI processes distributed on     1 nodes
     976 MiB available memory on the printing compute node when the environment starts

     Reading input from ti_hcp_scf.in

     Current dimensions of program PWSCF are:
     Max number of different atomic species (ntypx) = 10
     Max number of k-points (npk) =  40000
     Max angular momentum in pseudopotentials (lmaxx) =  4
     file Ti.pbe-spn-rrkjus_psl.1.0.0.UPF: wavefunction(s)  3S 3D renormalized

     Subspace diagonalization in iterative solution of the eigenvalue problem:
     a serial algorithm will be used


     G-vector sticks info
     --------------------
     sticks:   dense  smooth     PW     G-vecs:    dense   smooth      PW
     Sum         769     379    121                27449     9715    1725

     Using Slab Decomposition



     bravais-lattice index     =            4
     lattice parameter (alat)  =       5.5775  a.u.
     unit-cell volume          =     238.2105 (a.u.)^3
     number of atoms/cell      =            2
     number of atomic types    =            1
     number of electrons       =        24.00
     number of Kohn-Sham states=           16
     kinetic-energy cutoff     =      45.0000  Ry
     charge density cutoff     =     360.0000  Ry
     scf convergence threshold =      1.0E-08
     mixing beta               =       0.7000
     number of iterations used =            8  plain     mixing
     Exchange-correlation= PBE
                           (   1   4   3   4   0   0   0)

     celldm(1)=   5.577500  celldm(2)=   0.000000  celldm(3)=   1.585300
     celldm(4)=   0.000000  celldm(5)=   0.000000  celldm(6)=   0.000000

     crystal axes: (cart. coord. in units of alat)
               a(1) = (   1.000000   0.000000   0.000000 )  
               a(2) = (  -0.500000   0.866025   0.000000 )  
               a(3) = (   0.000000   0.000000   1.585300 )  

     reciprocal axes: (cart. coord. in units 2 pi/alat)
               b(1) = (  1.000000  0.577350 -0.000000 )  
               b(2) = (  0.000000  1.154701  0.000000 )  
               b(3) = (  0.000000 -0.000000  0.630795 )  


     PseudoPot. # 1 for Ti read from file:
     ./pseudo/Ti.pbe-spn-rrkjus_psl.1.0.0.UPF
     MD5 check sum: e281089c08e14b8efcf92e44a67ada65
     Pseudo is Ultrasoft + core correction, Zval = 12.0
     Generated using &quot;atomic&quot; code by A. Dal Corso  v.6.2.2
     Using radial grid of 1177 points,  6 beta functions with: 
                l(1) =   0
                l(2) =   0
                l(3) =   1
                l(4) =   1
                l(5) =   2
                l(6) =   2
     Q(r) pseudized with 0 coefficients 


     atomic species   valence    mass     pseudopotential
     Ti               12.00    47.86700     Ti( 1.00)

     24 Sym. Ops., with inversion, found (12 have fractional translation)



   Cartesian axes

     site n.     atom                  positions (alat units)
         1        Ti     tau(   1) = (  -0.0000005   0.5773506   0.3963250  )
         2        Ti     tau(   2) = (   0.5000005   0.2886748   1.1889750  )

     number of k points=    95  Marzari-Vanderbilt smearing, width (Ry)=  0.0200
                       cart. coord. in units 2pi/alat
        k(    1) = (   0.0000000   0.0000000   0.0000000), wk =   0.0017361
        k(    2) = (   0.0000000   0.0000000   0.0788494), wk =   0.0034722
        k(    3) = (   0.0000000   0.0000000   0.1576989), wk =   0.0034722
        k(    4) = (   0.0000000   0.0000000   0.2365483), wk =   0.0034722
        k(    5) = (   0.0000000   0.0000000  -0.3153977), wk =   0.0017361
        k(    6) = (   0.0000000   0.0962250   0.0000000), wk =   0.0104167
        k(    7) = (   0.0000000   0.0962250   0.0788494), wk =   0.0208333
        k(    8) = (   0.0000000   0.0962250   0.1576989), wk =   0.0208333
        k(    9) = (   0.0000000   0.0962250   0.2365483), wk =   0.0208333
        k(   10) = (   0.0000000   0.0962250  -0.3153977), wk =   0.0104167
        k(   11) = (   0.0000000   0.1924501   0.0000000), wk =   0.0104167
        k(   12) = (   0.0000000   0.1924501   0.0788494), wk =   0.0208333
        k(   13) = (   0.0000000   0.1924501   0.1576989), wk =   0.0208333
        k(   14) = (   0.0000000   0.1924501   0.2365483), wk =   0.0208333
        k(   15) = (   0.0000000   0.1924501  -0.3153977), wk =   0.0104167
        k(   16) = (   0.0000000   0.2886751   0.0000000), wk =   0.0104167
        k(   17) = (   0.0000000   0.2886751   0.0788494), wk =   0.0208333
        k(   18) = (   0.0000000   0.2886751   0.1576989), wk =   0.0208333
        k(   19) = (   0.0000000   0.2886751   0.2365483), wk =   0.0208333
        k(   20) = (   0.0000000   0.2886751  -0.3153977), wk =   0.0104167
        k(   21) = (   0.0000000   0.3849002   0.0000000), wk =   0.0104167
        k(   22) = (   0.0000000   0.3849002   0.0788494), wk =   0.0208333
        k(   23) = (   0.0000000   0.3849002   0.1576989), wk =   0.0208333
        k(   24) = (   0.0000000   0.3849002   0.2365483), wk =   0.0208333
        k(   25) = (   0.0000000   0.3849002  -0.3153977), wk =   0.0104167
        k(   26) = (   0.0000000   0.4811252   0.0000000), wk =   0.0104167
        k(   27) = (   0.0000000   0.4811252   0.0788494), wk =   0.0208333
        k(   28) = (   0.0000000   0.4811252   0.1576989), wk =   0.0208333
        k(   29) = (   0.0000000   0.4811252   0.2365483), wk =   0.0208333
        k(   30) = (   0.0000000   0.4811252  -0.3153977), wk =   0.0104167
        k(   31) = (   0.0000000  -0.5773503   0.0000000), wk =   0.0052083
        k(   32) = (   0.0000000  -0.5773503   0.0788494), wk =   0.0104167
        k(   33) = (   0.0000000  -0.5773503   0.1576989), wk =   0.0104167
        k(   34) = (   0.0000000  -0.5773503   0.2365483), wk =   0.0104167
        k(   35) = (   0.0000000  -0.5773503  -0.3153977), wk =   0.0052083
        k(   36) = (   0.0833333   0.1443376   0.0000000), wk =   0.0104167
        k(   37) = (   0.0833333   0.1443376   0.0788494), wk =   0.0208333
        k(   38) = (   0.0833333   0.1443376   0.1576989), wk =   0.0208333
        k(   39) = (   0.0833333   0.1443376   0.2365483), wk =   0.0208333
        k(   40) = (   0.0833333   0.1443376  -0.3153977), wk =   0.0104167
        k(   41) = (   0.0833333   0.2405626   0.0000000), wk =   0.0208333
        k(   42) = (   0.0833333   0.2405626   0.0788494), wk =   0.0416667
        k(   43) = (   0.0833333   0.2405626   0.1576989), wk =   0.0416667
        k(   44) = (   0.0833333   0.2405626   0.2365483), wk =   0.0416667
        k(   45) = (   0.0833333   0.2405626  -0.3153977), wk =   0.0208333
        k(   46) = (   0.0833333   0.3367877   0.0000000), wk =   0.0208333
        k(   47) = (   0.0833333   0.3367877   0.0788494), wk =   0.0416667
        k(   48) = (   0.0833333   0.3367877   0.1576989), wk =   0.0416667
        k(   49) = (   0.0833333   0.3367877   0.2365483), wk =   0.0416667
        k(   50) = (   0.0833333   0.3367877  -0.3153977), wk =   0.0208333
        k(   51) = (   0.0833333   0.4330127   0.0000000), wk =   0.0208333
        k(   52) = (   0.0833333   0.4330127   0.0788494), wk =   0.0416667
        k(   53) = (   0.0833333   0.4330127   0.1576989), wk =   0.0416667
        k(   54) = (   0.0833333   0.4330127   0.2365483), wk =   0.0416667
        k(   55) = (   0.0833333   0.4330127  -0.3153977), wk =   0.0208333
        k(   56) = (   0.0833333   0.5292377   0.0000000), wk =   0.0208333
        k(   57) = (   0.0833333   0.5292377   0.0788494), wk =   0.0416667
        k(   58) = (   0.0833333   0.5292377   0.1576989), wk =   0.0416667
        k(   59) = (   0.0833333   0.5292377   0.2365483), wk =   0.0416667
        k(   60) = (   0.0833333   0.5292377  -0.3153977), wk =   0.0208333
        k(   61) = (   0.1666667   0.2886751   0.0000000), wk =   0.0104167
        k(   62) = (   0.1666667   0.2886751   0.0788494), wk =   0.0208333
        k(   63) = (   0.1666667   0.2886751   0.1576989), wk =   0.0208333
        k(   64) = (   0.1666667   0.2886751   0.2365483), wk =   0.0208333
        k(   65) = (   0.1666667   0.2886751  -0.3153977), wk =   0.0104167
        k(   66) = (   0.1666667   0.3849002   0.0000000), wk =   0.0208333
        k(   67) = (   0.1666667   0.3849002   0.0788494), wk =   0.0416667
        k(   68) = (   0.1666667   0.3849002   0.1576989), wk =   0.0416667
        k(   69) = (   0.1666667   0.3849002   0.2365483), wk =   0.0416667
        k(   70) = (   0.1666667   0.3849002  -0.3153977), wk =   0.0208333
        k(   71) = (   0.1666667   0.4811252   0.0000000), wk =   0.0208333
        k(   72) = (   0.1666667   0.4811252   0.0788494), wk =   0.0416667
        k(   73) = (   0.1666667   0.4811252   0.1576989), wk =   0.0416667
        k(   74) = (   0.1666667   0.4811252   0.2365483), wk =   0.0416667
        k(   75) = (   0.1666667   0.4811252  -0.3153977), wk =   0.0208333
        k(   76) = (   0.1666667   0.5773503   0.0000000), wk =   0.0104167
        k(   77) = (   0.1666667   0.5773503   0.0788494), wk =   0.0208333
        k(   78) = (   0.1666667   0.5773503   0.1576989), wk =   0.0208333
        k(   79) = (   0.1666667   0.5773503   0.2365483), wk =   0.0208333
        k(   80) = (   0.1666667   0.5773503  -0.3153977), wk =   0.0104167
        k(   81) = (   0.2500000   0.4330127   0.0000000), wk =   0.0104167
        k(   82) = (   0.2500000   0.4330127   0.0788494), wk =   0.0208333
        k(   83) = (   0.2500000   0.4330127   0.1576989), wk =   0.0208333
        k(   84) = (   0.2500000   0.4330127   0.2365483), wk =   0.0208333
        k(   85) = (   0.2500000   0.4330127  -0.3153977), wk =   0.0104167
        k(   86) = (   0.2500000   0.5292377   0.0000000), wk =   0.0208333
        k(   87) = (   0.2500000   0.5292377   0.0788494), wk =   0.0416667
        k(   88) = (   0.2500000   0.5292377   0.1576989), wk =   0.0416667
        k(   89) = (   0.2500000   0.5292377   0.2365483), wk =   0.0416667
        k(   90) = (   0.2500000   0.5292377  -0.3153977), wk =   0.0208333
        k(   91) = (   0.3333333   0.5773503   0.0000000), wk =   0.0034722
        k(   92) = (   0.3333333   0.5773503   0.0788494), wk =   0.0069444
        k(   93) = (   0.3333333   0.5773503   0.1576989), wk =   0.0069444
        k(   94) = (   0.3333333   0.5773503   0.2365483), wk =   0.0069444
        k(   95) = (   0.3333333   0.5773503  -0.3153977), wk =   0.0034722

     Dense  grid:    27449 G-vectors     FFT dimensions: (  36,  36,  54)

     Smooth grid:     9715 G-vectors     FFT dimensions: (  24,  24,  40)

     Estimated max dynamical RAM per process >     125.47 MB

     Check: negative core charge=   -0.000008

     Initial potential from superposition of free atoms

     starting charge      23.9970, renormalised to      24.0000
     Starting wfcs are   20 randomized atomic wfcs

     total cpu time spent up to now is       43.5 secs

     per-process dynamical memory:    59.0 Mb

     Self-consistent Calculation

     iteration #  1     ecut=    45.00 Ry     beta= 0.70
     Davidson diagonalization with overlap
     ethr =  1.00E-02,  avg # of iterations =  2.6

     Threshold (ethr) on eigenvalues was too large:
     Diagonalizing with lowered threshold

     Davidson diagonalization with overlap
     ethr =  2.37E-04,  avg # of iterations =  3.2

     total cpu time spent up to now is      257.1 secs

     total energy              =    -239.44237191 Ry
     estimated scf accuracy    <       0.08610873 Ry

     iteration #  2     ecut=    45.00 Ry     beta= 0.70
     Davidson diagonalization with overlap
     ethr =  3.59E-04,  avg # of iterations =  2.4

     total cpu time spent up to now is      383.3 secs

     total energy              =    -239.46522576 Ry
     estimated scf accuracy    <       0.03843258 Ry

     iteration #  3     ecut=    45.00 Ry     beta= 0.70
     Davidson diagonalization with overlap
     ethr =  1.60E-04,  avg # of iterations =  2.0

     total cpu time spent up to now is      492.7 secs

     total energy              =    -239.47335992 Ry
     estimated scf accuracy    <       0.00015660 Ry

     iteration #  4     ecut=    45.00 Ry     beta= 0.70
     Davidson diagonalization with overlap
     ethr =  6.53E-07,  avg # of iterations =  5.3

     total cpu time spent up to now is      693.7 secs

     total energy              =    -239.47347613 Ry
     estimated scf accuracy    <       0.00008760 Ry

     iteration #  5     ecut=    45.00 Ry     beta= 0.70
     Davidson diagonalization with overlap
     ethr =  3.65E-07,  avg # of iterations =  2.1

     total cpu time spent up to now is      795.9 secs

     total energy              =    -239.47348859 Ry
     estimated scf accuracy    <       0.00000246 Ry

     iteration #  6     ecut=    45.00 Ry     beta= 0.70
     Davidson diagonalization with overlap
     ethr =  1.02E-08,  avg # of iterations =  4.8

     total cpu time spent up to now is      961.9 secs

     total energy              =    -239.47349001 Ry
     estimated scf accuracy    <       0.00000041 Ry

     iteration #  7     ecut=    45.00 Ry     beta= 0.70
     Davidson diagonalization with overlap
     ethr =  1.71E-09,  avg # of iterations =  2.4

     total cpu time spent up to now is     1058.6 secs

     total energy              =    -239.47349008 Ry
     estimated scf accuracy    <       0.00000001 Ry

     iteration #  8     ecut=    45.00 Ry     beta= 0.70
     Davidson diagonalization with overlap
     ethr =  4.82E-11,  avg # of iterations =  5.0

     total cpu time spent up to now is     1187.5 secs

     End of self-consistent calculation

          k = 0.0000 0.0000 0.0000 (  1201 PWs)   bands (ev):

   -43.6956 -43.5667 -20.2807 -19.6686 -19.6686 -19.6073 -19.5730 -19.5730
     6.9947  10.5085  13.9360  13.9360  14.0390  14.4231  14.4232  14.7735

          k = 0.0000 0.0000 0.0788 (  1195 PWs)   bands (ev):

   -43.6908 -43.5717 -20.2563 -19.6650 -19.6650 -19.6336 -19.5765 -19.5765
     7.1254  10.4369  13.6978  13.8754  13.8754  13.9685  14.3542  14.3542

          k = 0.0000 0.0000 0.1577 (  1195 PWs)   bands (ev):

   -43.6769 -43.5858 -20.1856 -19.7091 -19.6547 -19.6547 -19.5869 -19.5869
     7.5062  10.1556  13.3106  13.7723  13.7899  13.7899  14.1845  14.1845

          k = 0.0000 0.0000 0.2365 (  1195 PWs)   bands (ev):

   -43.6562 -43.6069 -20.0788 -19.8212 -19.6391 -19.6391 -19.6024 -19.6024
     8.1007   9.5858  13.1425  13.5034  13.7722  13.7722  13.9943  13.9943

          k = 0.0000 0.0000-0.3154 (  1194 PWs)   bands (ev):

   -43.6316 -43.6316 -19.9509 -19.9509 -19.6207 -19.6207 -19.6207 -19.6207
     8.8371   8.8371  13.2513  13.2513  13.8441  13.8441  13.8441  13.8441

          k = 0.0000 0.0962 0.0000 (  1203 PWs)   bands (ev):

   -43.6892 -43.5642 -20.2665 -19.6984 -19.6785 -19.6133 -19.6038 -19.5769
     7.1878  10.6607  13.5642  13.6165  14.0710  14.2666  14.3452  14.5443

          k = 0.0000 0.0962 0.0788 (  1193 PWs)   bands (ev):

   -43.6845 -43.5690 -20.2431 -19.6940 -19.6746 -19.6488 -19.5974 -19.5806
     7.3160  10.5938  13.3580  13.6111  13.9934  14.0961  14.3265  14.4616

          k = 0.0000 0.0962 0.1577 (  1197 PWs)   bands (ev):

   -43.6711 -43.5827 -20.1766 -19.7253 -19.6815 -19.6637 -19.6046 -19.5916
     7.6896  10.3177  13.0367  13.6175  13.7855  13.8942  14.2119  14.2904

          k = 0.0000 0.0962 0.2365 (  1203 PWs)   bands (ev):

   -43.6509 -43.6031 -20.0759 -19.8323 -19.6634 -19.6472 -19.6211 -19.6084
     8.2740   9.7463  12.9514  13.4414  13.6788  13.8736  14.0098  14.0986

          k = 0.0000 0.0962-0.3154 (  1212 PWs)   bands (ev):

   -43.6270 -43.6270 -19.9553 -19.9553 -19.6422 -19.6422 -19.6279 -19.6279
     9.0010   9.0010  13.1284  13.1284  13.8135  13.8136  13.9466  13.9466

          k = 0.0000 0.1925 0.0000 (  1188 PWs)   bands (ev):

   -43.6712 -43.5576 -20.2249 -19.7799 -19.7046 -19.6861 -19.6318 -19.5882
     7.7428  11.0539  12.8923  13.1614  14.0685  14.4196  14.4513  14.4603

          k = 0.0000 0.1925 0.0788 (  1201 PWs)   bands (ev):

   -43.6669 -43.5619 -20.2067 -19.7740 -19.7139 -19.7003 -19.6303 -19.5926
     7.8624  11.0034  12.7363  13.1847  14.0159  14.2368  14.2568  14.6620

          k = 0.0000 0.1925 0.1577 (  1205 PWs)   bands (ev):

   -43.6547 -43.5743 -20.1532 -19.7868 -19.7493 -19.6878 -19.6387 -19.6055
     8.2115  10.7450  12.5336  13.2555  13.7134  14.1308  14.1414  14.5821

          k = 0.0000 0.1925 0.2365 (  1210 PWs)   bands (ev):

   -43.6364 -43.5929 -20.0722 -19.8743 -19.7238 -19.6691 -19.6610 -19.6246
     8.7594  10.1715  12.5968  13.2227  13.5057  13.9399  14.1294  14.3916

          k = 0.0000 0.1925-0.3154 (  1214 PWs)   bands (ev):

   -43.6147 -43.6147 -19.9747 -19.9747 -19.6915 -19.6915 -19.6470 -19.6470
     9.4478   9.4478  12.8789  12.8789  13.6894  13.6894  14.2245  14.2245

          k = 0.0000 0.2887 0.0000 (  1214 PWs)   bands (ev):

   -43.6455 -43.5496 -20.1632 -19.8928 -19.7958 -19.7393 -19.6630 -19.6052
     8.5823  11.4431  12.2562  12.7568  13.8741  14.1292  14.2116  15.0476

          k = 0.0000 0.2887 0.0788 (  1212 PWs)   bands (ev):

   -43.6419 -43.5532 -20.1547 -19.8817 -19.8170 -19.7342 -19.6618 -19.6102
     8.6832  11.4254  12.1597  12.7963  13.7740  14.1523  14.1913  15.0893

          k = 0.0000 0.2887 0.1577 (  1215 PWs)   bands (ev):

   -43.6315 -43.5637 -20.1284 -19.8886 -19.8307 -19.7199 -19.6688 -19.6250
     8.9776  11.1915  12.1152  12.8921  13.5542  14.0840  14.2251  15.0332

          k = 0.0000 0.2887 0.2365 (  1205 PWs)   bands (ev):

   -43.6160 -43.5793 -20.0837 -19.9538 -19.7858 -19.6982 -19.6936 -19.6469
     9.4395  10.6519  12.3285  12.9138  13.4098  13.8575  14.3640  14.8082

          k = 0.0000 0.2887-0.3154 (  1204 PWs)   bands (ev):

   -43.5977 -43.5977 -20.0234 -20.0234 -19.7352 -19.7352 -19.6726 -19.6726
    10.0226  10.0226  12.6533  12.6533  13.5783  13.5783  14.5663  14.5664

          k = 0.0000 0.3849 0.0000 (  1216 PWs)   bands (ev):

   -43.6176 -43.5436 -20.0902 -20.0060 -19.9012 -19.7724 -19.7048 -19.6229
     9.5555  11.4676  11.7651  12.5763  13.8774  13.9636  13.9920  15.7205

          k = 0.0000 0.3849 0.0788 (  1215 PWs)   bands (ev):

   -43.6148 -43.5464 -20.1106 -19.9744 -19.9172 -19.7670 -19.6996 -19.6287
     9.6168  11.4459  11.7721  12.6018  13.7790  13.9416  14.1315  15.7348

          k = 0.0000 0.3849 0.1577 (  1214 PWs)   bands (ev):

   -43.6068 -43.5545 -20.1298 -19.9898 -19.8844 -19.7508 -19.6974 -19.6451
     9.7979  11.2434  11.9155  12.6770  13.6159  14.1276  14.1442  15.5690

          k = 0.0000 0.3849 0.2365 (  1210 PWs)   bands (ev):

   -43.5948 -43.5665 -20.1252 -20.0464 -19.8151 -19.7268 -19.7140 -19.6694
    10.0873  10.8733  12.1963  12.6952  13.5773  13.9897  14.4216  15.2008

          k = 0.0000 0.3849-0.3154 (  1202 PWs)   bands (ev):

   -43.5807 -43.5807 -20.0954 -20.0954 -19.7545 -19.7545 -19.6982 -19.6982
    10.4612  10.4612  12.5045  12.5045  13.7459  13.7459  14.7948  14.7948

          k = 0.0000 0.4811 0.0000 (  1212 PWs)   bands (ev):

   -43.5944 -43.5419 -20.0892 -20.0221 -19.9761 -19.7961 -19.7497 -19.6364
    10.4087  11.2476  11.4587  12.5317  13.7099  13.8416  14.2171  16.2601

          k = 0.0000 0.4811 0.0788 (  1219 PWs)   bands (ev):

   -43.5924 -43.5439 -20.1263 -20.0089 -19.9624 -19.7903 -19.7392 -19.6426
    10.3834  11.2033  11.6276  12.4415  13.7882  13.9766  14.1822  16.2635

          k = 0.0000 0.4811 0.1577 (  1214 PWs)   bands (ev):

   -43.5867 -43.5496 -20.1633 -20.0604 -19.8865 -19.7731 -19.7247 -19.6601
    10.3705  11.1022  11.9007  12.4142  13.9735  14.0202  14.3399  15.9264

          k = 0.0000 0.4811 0.2365 (  1208 PWs)   bands (ev):

   -43.5782 -43.5581 -20.1745 -20.1162 -19.8137 -19.7474 -19.7283 -19.6862
    10.4476  10.8813  12.1512  12.5167  13.9634  14.3897  14.4346  15.4054

          k = 0.0000 0.4811-0.3154 (  1202 PWs)   bands (ev):

   -43.5682 -43.5682 -20.1576 -20.1576 -19.7584 -19.7584 -19.7168 -19.7167
    10.6301  10.6301  12.4068  12.4068  14.2116  14.2116  14.8680  14.8680

          k = 0.0000-0.5774 0.0000 (  1216 PWs)   bands (ev):

   -43.5846 -43.5427 -20.1196 -20.0033 -19.9901 -19.8047 -19.7734 -19.6414
    10.8408  11.0456  11.3544  12.5438  13.6510  13.7871  14.3255  16.4577

          k = 0.0000-0.5774 0.0788 (  1216 PWs)   bands (ev):

   -43.5830 -43.5443 -20.1469 -20.0295 -19.9497 -19.7986 -19.7594 -19.6478
    10.6837  11.0618  11.6378  12.3542  13.7328  14.0551  14.2533  16.4095

          k = 0.0000-0.5774 0.1577 (  1220 PWs)   bands (ev):

   -43.5784 -43.5488 -20.1822 -20.0857 -19.8774 -19.7814 -19.7383 -19.6657
    10.5353  11.0396  12.1098  12.1295  13.9781  14.1043  14.5312  16.0180

          k = 0.0000-0.5774 0.2365 (  1212 PWs)   bands (ev):

   -43.5716 -43.5556 -20.1958 -20.1420 -19.8086 -19.7550 -19.7348 -19.6922
    10.5277  10.8718  12.1714  12.4239  14.1192  14.3701  14.7675  15.4542

          k = 0.0000-0.5774-0.3154 (  1224 PWs)   bands (ev):

   -43.5636 -43.5636 -20.1820 -20.1820 -19.7586 -19.7586 -19.7238 -19.7238
    10.6572  10.6572  12.3686  12.3687  14.4761  14.4761  14.8778  14.8778

          k = 0.0833 0.1443 0.0000 (  1194 PWs)   bands (ev):

   -43.6770 -43.5596 -20.2383 -19.7481 -19.7101 -19.6488 -19.6255 -19.5886
     7.5624  10.9375  13.0835  13.2755  14.1575  14.3490  14.3758  14.4796

          k = 0.0833 0.1443 0.0788 (  1200 PWs)   bands (ev):

   -43.6725 -43.5641 -20.2183 -19.7423 -19.7124 -19.6765 -19.6189 -19.5929
     7.6851  10.8812  12.9102  13.2945  14.0965  14.1799  14.2317  14.6069

          k = 0.0833 0.1443 0.1577 (  1206 PWs)   bands (ev):

   -43.6599 -43.5769 -20.1603 -19.7645 -19.7262 -19.6849 -19.6244 -19.6050
     8.0431  10.6164  12.6708  13.3546  13.7419  14.0748  14.1638  14.4772

          k = 0.0833 0.1443 0.2365 (  1207 PWs)   bands (ev):

   -43.6410 -43.5961 -20.0724 -19.8588 -19.7026 -19.6717 -19.6409 -19.6227
     8.6046  10.0421  12.6921  13.3000  13.5398  13.9424  14.0816  14.2925

          k = 0.0833 0.1443-0.3154 (  1206 PWs)   bands (ev):

   -43.6186 -43.6186 -19.9669 -19.9668 -19.6768 -19.6768 -19.6415 -19.6415
     9.3082   9.3082  12.9503  12.9503  13.7184  13.7184  14.1445  14.1445

          k = 0.0833 0.2406 0.0000 (  1203 PWs)   bands (ev):

   -43.6551 -43.5523 -20.1867 -19.8375 -19.7826 -19.7042 -19.6506 -19.6088
     8.2645  11.3650  12.4885  12.8299  13.9407  14.0505  14.4677  14.7836

          k = 0.0833 0.2406 0.0788 (  1208 PWs)   bands (ev):

   -43.6512 -43.5563 -20.1735 -19.8296 -19.7934 -19.7156 -19.6462 -19.6134
     8.3741  11.3363  12.3593  12.8647  13.8736  14.0558  14.3459  14.8285

          k = 0.0833 0.2406 0.1577 (  1211 PWs)   bands (ev):

   -43.6401 -43.5675 -20.1350 -19.8484 -19.7959 -19.7187 -19.6499 -19.6262
     8.6943  11.0912  12.2425  12.9622  13.6238  14.0328  14.2452  14.7982

          k = 0.0833 0.2406 0.2365 (  1207 PWs)   bands (ev):

   -43.6235 -43.5842 -20.0749 -19.9201 -19.7602 -19.7099 -19.6654 -19.6452
     9.1975  10.5180  12.4100  13.0133  13.3986  13.8150  14.3167  14.6341

          k = 0.0833 0.2406-0.3154 (  1208 PWs)   bands (ev):

   -43.6039 -43.6039 -20.0002 -20.0002 -19.7231 -19.7231 -19.6651 -19.6651
     9.8337   9.8337  12.7344  12.7344  13.5459  13.5459  14.4552  14.4552

          k = 0.0833 0.3368 0.0000 (  1218 PWs)   bands (ev):

   -43.6282 -43.5454 -20.1188 -19.9488 -19.8695 -19.7563 -19.6876 -19.6306
     9.1878  11.6079  11.9689  12.5230  13.7908  13.8847  14.2185  15.2429

          k = 0.0833 0.3368 0.0788 (  1216 PWs)   bands (ev):

   -43.6251 -43.5486 -20.1215 -19.9337 -19.8804 -19.7591 -19.6817 -19.6351
     9.2709  11.6062  11.9066  12.5728  13.6658  13.9901  14.1744  15.2484

          k = 0.0833 0.3368 0.1577 (  1215 PWs)   bands (ev):

   -43.6161 -43.5576 -20.1195 -19.9495 -19.8607 -19.7539 -19.6813 -19.6471
     9.5130  11.3600  11.9924  12.6907  13.4840  14.0048  14.1812  15.2134

          k = 0.0833 0.3368 0.2365 (  1211 PWs)   bands (ev):

   -43.6027 -43.5711 -20.0998 -20.0056 -19.8052 -19.7413 -19.6943 -19.6660
     9.8922  10.8903  12.2662  12.7662  13.3559  13.7572  14.4123  15.0056

          k = 0.0833 0.3368-0.3154 (  1202 PWs)   bands (ev):

   -43.5869 -43.5869 -20.0600 -20.0600 -19.7566 -19.7566 -19.6893 -19.6893
    10.3708  10.3708  12.5834  12.5834  13.4841  13.4841  14.7035  14.7035

          k = 0.0833 0.4330 0.0000 (  1214 PWs)   bands (ev):

   -43.6023 -43.5420 -20.0464 -20.0463 -19.9452 -19.7965 -19.7330 -19.6491
    10.1346  11.4600  11.5976  12.4489  13.6369  13.9648  14.1061  15.8460

          k = 0.0833 0.4330 0.0788 (  1212 PWs)   bands (ev):

   -43.6000 -43.5443 -20.1024 -19.9960 -19.9467 -19.7942 -19.7231 -19.6537
    10.1611  11.4188  11.6773  12.4603  13.6493  13.9635  14.1317  15.8126

          k = 0.0833 0.4330 0.1577 (  1218 PWs)   bands (ev):

   -43.5934 -43.5508 -20.1373 -20.0305 -19.8876 -19.7804 -19.7147 -19.6651
    10.2518  11.2587  11.8861  12.5519  13.6067  13.9813  14.2351  15.6599

          k = 0.0833 0.4330 0.2365 (  1216 PWs)   bands (ev):

   -43.5837 -43.5606 -20.1453 -20.0837 -19.8231 -19.7597 -19.7217 -19.6811
    10.4247  10.9811  12.1840  12.6441  13.5620  13.9035  14.4897  15.2725

          k = 0.0833 0.4330-0.3154 (  1210 PWs)   bands (ev):

   -43.5721 -43.5721 -20.1256 -20.1256 -19.7752 -19.7752 -19.7060 -19.7060
    10.6790  10.6790  12.4929  12.4929  13.7083  13.7083  14.8473  14.8473

          k = 0.0833 0.5292 0.0000 (  1226 PWs)   bands (ev):

   -43.5847 -43.5426 -20.1034 -19.9909 -19.9892 -19.8184 -19.7730 -19.6600
    10.8121  11.2261  11.4047  12.4549  13.5914  13.7841  14.3206  16.3896

          k = 0.0833 0.5292 0.0788 (  1222 PWs)   bands (ev):

   -43.5831 -43.5442 -20.1312 -20.0177 -19.9497 -19.8111 -19.7593 -19.6648
    10.7125  11.2068  11.6533  12.3334  13.6300  13.9401  14.2978  16.3241

          k = 0.0833 0.5292 0.1577 (  1218 PWs)   bands (ev):

   -43.5785 -43.5487 -20.1668 -20.0730 -19.8849 -19.7879 -19.7432 -19.6762
    10.6084  11.1655  11.9982  12.2893  13.6380  14.2025  14.3590  15.9326

          k = 0.0833 0.5292 0.2365 (  1213 PWs)   bands (ev):

   -43.5717 -43.5555 -20.1807 -20.1284 -19.8281 -19.7596 -19.7436 -19.6897
    10.6241  10.9848  12.1914  12.5215  13.6521  14.2597  14.6294  15.4492

          k = 0.0833 0.5292-0.3154 (  1216 PWs)   bands (ev):

   -43.5636 -43.5636 -20.1673 -20.1673 -19.7847 -19.7847 -19.7128 -19.7128
    10.7648  10.7648  12.4385  12.4385  13.9596  13.9596  15.0222  15.0222

          k = 0.1667 0.2887 0.0000 (  1218 PWs)   bands (ev):

   -43.6320 -43.5462 -20.1285 -19.8985 -19.8877 -19.7369 -19.6817 -19.6468
     9.0629  11.7306  12.0711  12.4147  13.7059  13.8770  14.3397  15.0100

          k = 0.1667 0.2887 0.0788 (  1222 PWs)   bands (ev):

   -43.6287 -43.5495 -20.1268 -19.8975 -19.8816 -19.7539 -19.6693 -19.6518
     9.1534  11.7441  11.9724  12.4578  13.6643  13.9126  14.2526  15.0235

          k = 0.1667 0.2887 0.1577 (  1216 PWs)   bands (ev):

   -43.6195 -43.5588 -20.1156 -19.9326 -19.8392 -19.7673 -19.6657 -19.6607
     9.4173  11.4540  12.0497  12.5809  13.5171  13.8904  14.1787  15.0414

          k = 0.1667 0.2887 0.2365 (  1209 PWs)   bands (ev):

   -43.6056 -43.5728 -20.0884 -19.9874 -19.7899 -19.7623 -19.6826 -19.6705
     9.8309  10.9245  12.3220  12.7241  13.3093  13.6263  14.3650  14.9063

          k = 0.1667 0.2887-0.3154 (  1194 PWs)   bands (ev):

   -43.5892 -43.5892 -20.0435 -20.0435 -19.7596 -19.7596 -19.6870 -19.6870
    10.3537  10.3537  12.6262  12.6262  13.3476  13.3476  14.6394  14.6394

          k = 0.1667 0.3849 0.0000 (  1223 PWs)   bands (ev):

   -43.6066 -43.5422 -20.0593 -19.9904 -19.9410 -19.7900 -19.7242 -19.6824
    10.0040  11.7334  11.8019  12.2030  13.4900  14.0199  14.0887  15.3821

          k = 0.1667 0.3849 0.0788 (  1217 PWs)   bands (ev):

   -43.6042 -43.5446 -20.0838 -19.9832 -19.9206 -19.8055 -19.7090 -19.6845
    10.0603  11.6576  11.8648  12.2708  13.4824  13.9987  14.0374  15.3794

          k = 0.1667 0.3849 0.1577 (  1218 PWs)   bands (ev):

   -43.5972 -43.5516 -20.1102 -20.0102 -19.8661 -19.8123 -19.7092 -19.6781
    10.2241  11.4513  12.0457  12.4343  13.4187  13.7688  14.1336  15.3541

          k = 0.1667 0.3849 0.2365 (  1219 PWs)   bands (ev):

   -43.5868 -43.5621 -20.1145 -20.0550 -19.8238 -19.7953 -19.7172 -19.6798
    10.4812  11.1479  12.3177  12.6136  13.2800  13.4851  14.3500  15.0905

          k = 0.1667 0.3849-0.3154 (  1214 PWs)   bands (ev):

   -43.5744 -43.5744 -20.0941 -20.0941 -19.7984 -19.7984 -19.6999 -19.6999
    10.8042  10.8042  12.5895  12.5895  13.2624  13.2624  14.6888  14.6888

          k = 0.1667 0.4811 0.0000 (  1224 PWs)   bands (ev):

   -43.5849 -43.5424 -20.0605 -19.9920 -19.9656 -19.8417 -19.7716 -19.7064
    10.8365  11.5168  11.5722  12.2323  13.4278  13.8158  14.3004  15.8783

          k = 0.1667 0.4811 0.0788 (  1222 PWs)   bands (ev):

   -43.5833 -43.5440 -20.0900 -20.0079 -19.9349 -19.8421 -19.7562 -19.7059
    10.8144  11.5054  11.6825  12.2605  13.4413  13.7711  14.3081  15.8585

          k = 0.1667 0.4811 0.1577 (  1217 PWs)   bands (ev):

   -43.5786 -43.5486 -20.1272 -20.0513 -19.8961 -19.8152 -19.7500 -19.6952
    10.8071  11.4254  11.9174  12.4322  13.3779  13.6729  14.3849  15.6910

          k = 0.1667 0.4811 0.2365 (  1220 PWs)   bands (ev):

   -43.5717 -43.5555 -20.1437 -20.0996 -19.8631 -19.8027 -19.7359 -19.6886
    10.8769  11.2386  12.2319  12.6977  13.1894  13.5399  14.5670  15.2403

          k = 0.1667 0.4811-0.3154 (  1224 PWs)   bands (ev):

   -43.5636 -43.5636 -20.1337 -20.1337 -19.8294 -19.8294 -19.7035 -19.7035
    11.0316  11.0316  12.5792  12.5792  13.3061  13.3061  14.8422  14.8422

          k = 0.1667 0.5774 0.0000 (  1228 PWs)   bands (ev):

   -43.5751 -43.5443 -20.0858 -19.9718 -19.9577 -19.8641 -19.7987 -19.7148
    11.2220  11.4213  11.4427  12.2584  13.4601  13.6619  14.4321  16.2436

          k = 0.1667 0.5774 0.0788 (  1225 PWs)   bands (ev):

   -43.5739 -43.5455 -20.1071 -20.0019 -19.9418 -19.8422 -19.7849 -19.7138
    11.0561  11.4502  11.7296  12.1809  13.4330  13.7113  14.4419  16.2372

          k = 0.1667 0.5774 0.1577 (  1219 PWs)   bands (ev):

   -43.5705 -43.5488 -20.1404 -20.0601 -19.9125 -19.7912 -19.7824 -19.7029
    10.9414  11.4515  12.1073  12.1918  13.3023  13.7664  14.5266  15.8215

          k = 0.1667 0.5774 0.2365 (  1219 PWs)   bands (ev):

   -43.5655 -43.5538 -20.1572 -20.1139 -19.8784 -19.8062 -19.7390 -19.6929
    10.9556  11.2899  12.2711  12.6590  13.0854  13.6628  14.7296  15.3488

          k = 0.1667 0.5774-0.3154 (  1226 PWs)   bands (ev):

   -43.5596 -43.5596 -20.1487 -20.1487 -19.8411 -19.8411 -19.7039 -19.7039
    11.0862  11.0862  12.5780  12.5780  13.3240  13.3240  15.0009  15.0009

          k = 0.2500 0.4330 0.0000 (  1220 PWs)   bands (ev):

   -43.5850 -43.5423 -20.0239 -19.9924 -19.9720 -19.8395 -19.7709 -19.7402
    10.8656  11.5804  11.8896  11.9731  13.3345  13.8375  14.2848  15.6315

          k = 0.2500 0.4330 0.0788 (  1226 PWs)   bands (ev):

   -43.5834 -43.5439 -20.0491 -20.0292 -19.9077 -19.8673 -19.7452 -19.7401
    10.8916  11.5363  11.9331  12.0822  13.3568  13.7180  14.2741  15.6320

          k = 0.2500 0.4330 0.1577 (  1210 PWs)   bands (ev):

   -43.5787 -43.5485 -20.0958 -20.0516 -19.8880 -19.8449 -19.7523 -19.7033
    10.9661  11.4532  12.0716  12.3340  13.3672  13.4276  14.2830  15.5516

          k = 0.2500 0.4330 0.2365 (  1209 PWs)   bands (ev):

   -43.5718 -43.5554 -20.1178 -20.0866 -19.8784 -19.8304 -19.7326 -19.6886
    11.0791  11.3462  12.3085  12.6245  13.0873  13.2647  14.3989  15.1231

          k = 0.2500 0.4330-0.3154 (  1218 PWs)   bands (ev):

   -43.5636 -43.5636 -20.1135 -20.1135 -19.8532 -19.8532 -19.7005 -19.7005
    11.2141  11.2141  12.6053  12.6053  13.0512  13.0512  14.6865  14.6865

          k = 0.2500 0.5292 0.0000 (  1222 PWs)   bands (ev):

   -43.5684 -43.5464 -20.0488 -19.9534 -19.9327 -19.8959 -19.8190 -19.7767
    11.4624  11.5086  11.7499  12.0136  13.3397  13.5855  14.5265  15.9774

          k = 0.2500 0.5292 0.0788 (  1223 PWs)   bands (ev):

   -43.5675 -43.5473 -20.0594 -20.0011 -19.9382 -19.8619 -19.7984 -19.7668
    11.3742  11.6425  11.7956  12.0503  13.3286  13.5036  14.5189  15.9807

          k = 0.2500 0.5292 0.1577 (  1223 PWs)   bands (ev):

   -43.5651 -43.5496 -20.0918 -20.0485 -19.9507 -19.8303 -19.7770 -19.7255
    11.3445  11.6919  11.9604  12.2306  13.2201  13.3413  14.5258  15.6985

          k = 0.2500 0.5292 0.2365 (  1225 PWs)   bands (ev):

   -43.5616 -43.5532 -20.1171 -20.0927 -19.9289 -19.8567 -19.7281 -19.6984
    11.3900  11.6090  12.2311  12.5223  12.9602  13.1817  14.6080  15.1994

          k = 0.2500 0.5292-0.3154 (  1222 PWs)   bands (ev):

   -43.5574 -43.5574 -20.1179 -20.1179 -19.8936 -19.8936 -19.6989 -19.6989
    11.4904  11.4904  12.5323  12.5323  12.9489  12.9489  14.8212  14.8212

          k = 0.3333 0.5774 0.0000 (  1218 PWs)   bands (ev):

   -43.5551 -43.5551 -20.0344 -19.9299 -19.9299 -19.8739 -19.8739 -19.8171
    11.5175  11.7939  11.7939  11.8945  13.3980  13.3980  14.6472  16.1774

          k = 0.3333 0.5774 0.0788 (  1218 PWs)   bands (ev):

   -43.5551 -43.5551 -20.0262 -19.9834 -19.9833 -19.8257 -19.8198 -19.8197
    11.5644  11.8305  11.8305  11.9112  13.3382  13.3382  14.6305  16.1815

          k = 0.3333 0.5774 0.1577 (  1230 PWs)   bands (ev):

   -43.5551 -43.5551 -20.0457 -20.0457 -20.0033 -19.8499 -19.7561 -19.7561
    11.6891  11.9278  11.9278  11.9497  13.1896  13.1896  14.6037  15.6864

          k = 0.3333 0.5774 0.2365 (  1236 PWs)   bands (ev):

   -43.5551 -43.5551 -20.0880 -20.0880 -19.9685 -19.8854 -19.7126 -19.7126
    11.8402  11.9776  12.0462  12.0462  13.0274  13.0274  14.6391  15.1864

          k = 0.3333 0.5774-0.3154 (  1236 PWs)   bands (ev):

   -43.5551 -43.5551 -20.1027 -20.1027 -19.9272 -19.9272 -19.6972 -19.6972
    11.9484  11.9484  12.1057  12.1057  12.9510  12.9510  14.8198  14.8198

     the Fermi energy is    13.1509 ev

!    total energy              =    -239.47349009 Ry
     estimated scf accuracy    <          2.7E-10 Ry
     smearing contrib. (-TS)   =       0.00022828 Ry
     internal energy E=F+TS    =    -239.47371836 Ry

     The total energy is F=E-TS. E is the sum of the following terms:
     one-electron contribution =     -82.38823896 Ry
     hartree contribution      =      48.99640162 Ry
     xc contribution           =     -37.04540483 Ry
     ewald contribution        =    -169.03647620 Ry

     convergence has been achieved in   8 iterations

     Writing all to output data dir ./outdir/ti_hcp.save/ :
     XML data file, charge density, pseudopotentials, collected wavefunctions

     init_run     :    153.26s CPU     43.19s WALL (       1 calls)
     electrons    :   4898.86s CPU   1144.17s WALL (       1 calls)

     Called by init_run:
     wfcinit      :    149.93s CPU     40.40s WALL (       1 calls)
     potinit      :      0.83s CPU      0.89s WALL (       1 calls)
     hinit0       :      1.64s CPU      1.58s WALL (       1 calls)

     Called by electrons:
     c_bands      :   4537.83s CPU    995.89s WALL (       9 calls)
     sum_band     :    344.77s CPU    145.14s WALL (       9 calls)
     v_of_rho     :      0.63s CPU      0.20s WALL (       9 calls)
     newd         :     14.98s CPU      2.99s WALL (       9 calls)
     mix_rho      :      0.05s CPU      0.03s WALL (       9 calls)

     Called by c_bands:
     init_us_2    :     10.62s CPU      1.73s WALL (    1805 calls)
     cegterg      :   4441.42s CPU    985.96s WALL (     855 calls)

     Called by *egterg:
     cdiaghg      :     53.26s CPU      5.84s WALL (    3595 calls)
     h_psi        :   4043.20s CPU    968.01s WALL (    3785 calls)
     s_psi        :    101.29s CPU     11.15s WALL (    3785 calls)
     g_psi        :      4.51s CPU      0.90s WALL (    2835 calls)

     Called by h_psi:
     h_psi:calbec :      5.48s CPU      1.79s WALL (    3785 calls)
     vloc_psi     :   3931.13s CPU    955.12s WALL (    3785 calls)
                                        0.00s GPU  (    3785 calls)
     add_vuspsi   :     44.13s CPU      5.04s WALL (    3785 calls)

     General routines
     calbec       :      5.93s CPU      2.15s WALL (    4640 calls)
     fft          :      1.35s CPU      1.05s WALL (     116 calls)
     ffts         :      0.73s CPU      0.82s WALL (      18 calls)
     fftw         :   4174.23s CPU   1080.85s WALL (   91412 calls)
     interpolate  :      0.74s CPU      0.83s WALL (       9 calls)

     Parallel routines

     PWSCF        :      1h24m CPU  19m48.40s WALL


   This run was terminated on:  19:34:58  13Jun2026            

=------------------------------------------------------------------------------=
   JOB DONE.
=------------------------------------------------------------------------------=
